
Version,
  24.2;                                   !- Version Identifier

Timestep,
  4;                                      !- Number of Timesteps per Hour

LifeCycleCost:Parameters,
  Life Cycle Cost Parameters,             !- Name
  EndOfYear,                              !- Discounting Convention
  ConstantDollar,                         !- Inflation Approach
  0.03,                                   !- Real Discount Rate
  ,                                       !- Nominal Discount Rate
  ,                                       !- Inflation
  ,                                       !- Base Date Month
  2011,                                   !- Base Date Year
  ,                                       !- Service Date Month
  2011,                                   !- Service Date Year
  25,                                     !- Length of Study Period in Years
  ,                                       !- Tax rate
  None;                                   !- Depreciation Method

LifeCycleCost:UsePriceEscalation,
  U.S. Avg  Commercial-Electricity,       !- Name
  Electricity,                            !- Resource
  2011,                                   !- Escalation Start Year
  January,                                !- Escalation Start Month
  0.9838,                                 !- Year Escalation 1
  0.9730,                                 !- Year Escalation 2
  0.9632,                                 !- Year Escalation 3
  0.9611,                                 !- Year Escalation 4
  0.9571,                                 !- Year Escalation 5
  0.9553,                                 !- Year Escalation 6
  0.9539,                                 !- Year Escalation 7
  0.9521,                                 !- Year Escalation 8
  0.9546,                                 !- Year Escalation 9
  0.9550,                                 !- Year Escalation 10
  0.9553,                                 !- Year Escalation 11
  0.9564,                                 !- Year Escalation 12
  0.9575,                                 !- Year Escalation 13
  0.9596,                                 !- Year Escalation 14
  0.9618,                                 !- Year Escalation 15
  0.9614,                                 !- Year Escalation 16
  0.9618,                                 !- Year Escalation 17
  0.9618,                                 !- Year Escalation 18
  0.9593,                                 !- Year Escalation 19
  0.9589,                                 !- Year Escalation 20
  0.9607,                                 !- Year Escalation 21
  0.9625,                                 !- Year Escalation 22
  0.9650,                                 !- Year Escalation 23
  0.9708,                                 !- Year Escalation 24
  0.9751,                                 !- Year Escalation 25
  0.9762,                                 !- Year Escalation 26
  0.9766,                                 !- Year Escalation 27
  0.9766,                                 !- Year Escalation 28
  0.9769,                                 !- Year Escalation 29
  0.9773;                                 !- Year Escalation 30

LifeCycleCost:UsePriceEscalation,
  U.S. Avg  Commercial-Distillate Oil,    !- Name
  FuelOilNo1,                             !- Resource
  2011,                                   !- Escalation Start Year
  January,                                !- Escalation Start Month
  0.9714,                                 !- Year Escalation 1
  0.9730,                                 !- Year Escalation 2
  0.9942,                                 !- Year Escalation 3
  1.0164,                                 !- Year Escalation 4
  1.0541,                                 !- Year Escalation 5
  1.0928,                                 !- Year Escalation 6
  1.1267,                                 !- Year Escalation 7
  1.1580,                                 !- Year Escalation 8
  1.1792,                                 !- Year Escalation 9
  1.1967,                                 !- Year Escalation 10
  1.2200,                                 !- Year Escalation 11
  1.2333,                                 !- Year Escalation 12
  1.2566,                                 !- Year Escalation 13
  1.2709,                                 !- Year Escalation 14
  1.2826,                                 !- Year Escalation 15
  1.2985,                                 !- Year Escalation 16
  1.3102,                                 !- Year Escalation 17
  1.3250,                                 !- Year Escalation 18
  1.3261,                                 !- Year Escalation 19
  1.3282,                                 !- Year Escalation 20
  1.3324,                                 !- Year Escalation 21
  1.3356,                                 !- Year Escalation 22
  1.3431,                                 !- Year Escalation 23
  1.3510,                                 !- Year Escalation 24
  1.3568,                                 !- Year Escalation 25
  1.3606,                                 !- Year Escalation 26
  1.3637,                                 !- Year Escalation 27
  1.3674,                                 !- Year Escalation 28
  1.3706,                                 !- Year Escalation 29
  1.3743;                                 !- Year Escalation 30

LifeCycleCost:UsePriceEscalation,
  U.S. Avg  Commercial-Residual Oil,      !- Name
  FuelOilNo2,                             !- Resource
  2011,                                   !- Escalation Start Year
  January,                                !- Escalation Start Month
  0.8469,                                 !- Year Escalation 1
  0.8257,                                 !- Year Escalation 2
  0.8681,                                 !- Year Escalation 3
  0.8988,                                 !- Year Escalation 4
  0.9289,                                 !- Year Escalation 5
  0.9604,                                 !- Year Escalation 6
  0.9897,                                 !- Year Escalation 7
  1.0075,                                 !- Year Escalation 8
  1.0314,                                 !- Year Escalation 9
  1.0554,                                 !- Year Escalation 10
  1.0861,                                 !- Year Escalation 11
  1.1278,                                 !- Year Escalation 12
  1.1497,                                 !- Year Escalation 13
  1.1620,                                 !- Year Escalation 14
  1.1743,                                 !- Year Escalation 15
  1.1852,                                 !- Year Escalation 16
  1.1948,                                 !- Year Escalation 17
  1.2037,                                 !- Year Escalation 18
  1.2071,                                 !- Year Escalation 19
  1.2119,                                 !- Year Escalation 20
  1.2139,                                 !- Year Escalation 21
  1.2194,                                 !- Year Escalation 22
  1.2276,                                 !- Year Escalation 23
  1.2365,                                 !- Year Escalation 24
  1.2420,                                 !- Year Escalation 25
  1.2461,                                 !- Year Escalation 26
  1.2509,                                 !- Year Escalation 27
  1.2550,                                 !- Year Escalation 28
  1.2591,                                 !- Year Escalation 29
  1.2638;                                 !- Year Escalation 30

LifeCycleCost:UsePriceEscalation,
  U.S. Avg  Commercial-Natural gas,       !- Name
  NaturalGas,                             !- Resource
  2011,                                   !- Escalation Start Year
  January,                                !- Escalation Start Month
  0.9823,                                 !- Year Escalation 1
  0.9557,                                 !- Year Escalation 2
  0.9279,                                 !- Year Escalation 3
  0.9257,                                 !- Year Escalation 4
  0.9346,                                 !- Year Escalation 5
  0.9412,                                 !- Year Escalation 6
  0.9512,                                 !- Year Escalation 7
  0.9645,                                 !- Year Escalation 8
  0.9856,                                 !- Year Escalation 9
  1.0067,                                 !- Year Escalation 10
  1.0222,                                 !- Year Escalation 11
  1.0410,                                 !- Year Escalation 12
  1.0610,                                 !- Year Escalation 13
  1.0787,                                 !- Year Escalation 14
  1.0942,                                 !- Year Escalation 15
  1.1098,                                 !- Year Escalation 16
  1.1220,                                 !- Year Escalation 17
  1.1308,                                 !- Year Escalation 18
  1.1386,                                 !- Year Escalation 19
  1.1486,                                 !- Year Escalation 20
  1.1619,                                 !- Year Escalation 21
  1.1763,                                 !- Year Escalation 22
  1.1918,                                 !- Year Escalation 23
  1.2118,                                 !- Year Escalation 24
  1.2284,                                 !- Year Escalation 25
  1.2439,                                 !- Year Escalation 26
  1.2605,                                 !- Year Escalation 27
  1.2772,                                 !- Year Escalation 28
  1.2938,                                 !- Year Escalation 29
  1.3115;                                 !- Year Escalation 30

LifeCycleCost:UsePriceEscalation,
  U.S. Avg  Commercial-Coal,              !- Name
  Coal,                                   !- Resource
  2011,                                   !- Escalation Start Year
  January,                                !- Escalation Start Month
  0.9970,                                 !- Year Escalation 1
  1.0089,                                 !- Year Escalation 2
  1.0089,                                 !- Year Escalation 3
  0.9941,                                 !- Year Escalation 4
  0.9941,                                 !- Year Escalation 5
  1.0000,                                 !- Year Escalation 6
  1.0030,                                 !- Year Escalation 7
  1.0059,                                 !- Year Escalation 8
  1.0089,                                 !- Year Escalation 9
  1.0119,                                 !- Year Escalation 10
  1.0148,                                 !- Year Escalation 11
  1.0178,                                 !- Year Escalation 12
  1.0208,                                 !- Year Escalation 13
  1.0267,                                 !- Year Escalation 14
  1.0297,                                 !- Year Escalation 15
  1.0356,                                 !- Year Escalation 16
  1.0415,                                 !- Year Escalation 17
  1.0534,                                 !- Year Escalation 18
  1.0564,                                 !- Year Escalation 19
  1.0593,                                 !- Year Escalation 20
  1.0653,                                 !- Year Escalation 21
  1.0712,                                 !- Year Escalation 22
  1.0742,                                 !- Year Escalation 23
  1.0801,                                 !- Year Escalation 24
  1.0831,                                 !- Year Escalation 25
  1.0831,                                 !- Year Escalation 26
  1.0861,                                 !- Year Escalation 27
  1.0890,                                 !- Year Escalation 28
  1.0920,                                 !- Year Escalation 29
  1.0950;                                 !- Year Escalation 30

Building,
  Building 1,                             !- Name
  ,                                       !- North Axis {deg}
  Suburbs,                                !- Terrain
  ,                                       !- Loads Convergence Tolerance Value {W}
  ,                                       !- Temperature Convergence Tolerance Value {deltaC}
  ,                                       !- Solar Distribution
  ,                                       !- Maximum Number of Warmup Days
  ;                                       !- Minimum Number of Warmup Days

Shading:Building:Detailed,
  Neighbor azimuth 270 distance 15.0,     !- Name
  ,                                       !- Transmittance Schedule Name
  ,                                       !- Number of Vertices
  -46.3326921157895, -41.7606921157895, 0, !- X,Y,Z Vertex 1 {m}
  -46.3326921157895, -41.7606921157895, 2.7432, !- X,Y,Z Vertex 2 {m}
  -46.3326921157895, 41.7606921157895, 2.7432, !- X,Y,Z Vertex 3 {m}
  -46.3326921157895, 41.7606921157895, 0; !- X,Y,Z Vertex 4 {m}

Shading:Building:Detailed,
  Neighbor azimuth 90 distance 15.0,      !- Name
  ,                                       !- Transmittance Schedule Name
  ,                                       !- Number of Vertices
  46.3326921157895, 41.7606921157895, 0,  !- X,Y,Z Vertex 1 {m}
  46.3326921157895, 41.7606921157895, 2.7432, !- X,Y,Z Vertex 2 {m}
  46.3326921157895, -41.7606921157895, 2.7432, !- X,Y,Z Vertex 3 {m}
  46.3326921157895, -41.7606921157895, 0; !- X,Y,Z Vertex 4 {m}

Zone,
  air source heat pump airloop ret air zone, !- Name
  ,                                       !- Direction of Relative North {deg}
  0,                                      !- X Origin {m}
  0,                                      !- Y Origin {m}
  0,                                      !- Z Origin {m}
  ,                                       !- Type
  1,                                      !- Multiplier
  ,                                       !- Ceiling Height {m}
  1,                                      !- Volume {m3}
  ,                                       !- Floor Area {m2}
  ,                                       !- Zone Inside Convection Algorithm
  ,                                       !- Zone Outside Convection Algorithm
  No;                                     !- Part of Total Floor Area

Space,
  air source heat pump airloop ret air space, !- Name
  air source heat pump airloop ret air zone, !- Zone Name
  ,                                       !- Ceiling Height {m}
  ,                                       !- Volume {m3}
  ,                                       !- Floor Area {m2}
  Plenum Space Type;                      !- Space Type

SpaceList,
  Plenum Space Type,                      !- Name
  air source heat pump airloop ret air space; !- Space Name 1

BuildingSurface:Detailed,
  Surface 1,                              !- Name
  Floor,                                  !- Surface Type
  AdiabaticConst,                         !- Construction Name
  air source heat pump airloop ret air zone, !- Zone Name
  air source heat pump airloop ret air space, !- Space Name
  Adiabatic,                              !- Outside Boundary Condition
  ,                                       !- Outside Boundary Condition Object
  NoSun,                                  !- Sun Exposure
  NoWind,                                 !- Wind Exposure
  ,                                       !- View Factor to Ground
  ,                                       !- Number of Vertices
  0, 0, 0,                                !- X,Y,Z Vertex 1 {m}
  0, 1, 0,                                !- X,Y,Z Vertex 2 {m}
  1, 1, 0,                                !- X,Y,Z Vertex 3 {m}
  1, 0, 0;                                !- X,Y,Z Vertex 4 {m}

SurfaceProperty:ConvectionCoefficients,
  Surface 1,                              !- Surface Name
  Inside,                                 !- Convection Coefficient 1 Location
  Value,                                  !- Convection Coefficient 1 Type
  30;                                     !- Convection Coefficient 1 {W/m2-K}

BuildingSurface:Detailed,
  Surface 2,                              !- Name
  Wall,                                   !- Surface Type
  AdiabaticConst,                         !- Construction Name
  air source heat pump airloop ret air zone, !- Zone Name
  air source heat pump airloop ret air space, !- Space Name
  Adiabatic,                              !- Outside Boundary Condition
  ,                                       !- Outside Boundary Condition Object
  NoSun,                                  !- Sun Exposure
  NoWind,                                 !- Wind Exposure
  ,                                       !- View Factor to Ground
  ,                                       !- Number of Vertices
  0, 0, 1,                                !- X,Y,Z Vertex 1 {m}
  0, 1, 1,                                !- X,Y,Z Vertex 2 {m}
  0, 1, 0,                                !- X,Y,Z Vertex 3 {m}
  0, 0, 0;                                !- X,Y,Z Vertex 4 {m}

SurfaceProperty:ConvectionCoefficients,
  Surface 2,                              !- Surface Name
  Inside,                                 !- Convection Coefficient 1 Location
  Value,                                  !- Convection Coefficient 1 Type
  30;                                     !- Convection Coefficient 1 {W/m2-K}

BuildingSurface:Detailed,
  Surface 3,                              !- Name
  Wall,                                   !- Surface Type
  AdiabaticConst,                         !- Construction Name
  air source heat pump airloop ret air zone, !- Zone Name
  air source heat pump airloop ret air space, !- Space Name
  Adiabatic,                              !- Outside Boundary Condition
  ,                                       !- Outside Boundary Condition Object
  NoSun,                                  !- Sun Exposure
  NoWind,                                 !- Wind Exposure
  ,                                       !- View Factor to Ground
  ,                                       !- Number of Vertices
  0, 1, 1,                                !- X,Y,Z Vertex 1 {m}
  1, 1, 1,                                !- X,Y,Z Vertex 2 {m}
  1, 1, 0,                                !- X,Y,Z Vertex 3 {m}
  0, 1, 0;                                !- X,Y,Z Vertex 4 {m}

SurfaceProperty:ConvectionCoefficients,
  Surface 3,                              !- Surface Name
  Inside,                                 !- Convection Coefficient 1 Location
  Value,                                  !- Convection Coefficient 1 Type
  30;                                     !- Convection Coefficient 1 {W/m2-K}

BuildingSurface:Detailed,
  Surface 4,                              !- Name
  Wall,                                   !- Surface Type
  AdiabaticConst,                         !- Construction Name
  air source heat pump airloop ret air zone, !- Zone Name
  air source heat pump airloop ret air space, !- Space Name
  Adiabatic,                              !- Outside Boundary Condition
  ,                                       !- Outside Boundary Condition Object
  NoSun,                                  !- Sun Exposure
  NoWind,                                 !- Wind Exposure
  ,                                       !- View Factor to Ground
  ,                                       !- Number of Vertices
  1, 1, 1,                                !- X,Y,Z Vertex 1 {m}
  1, 0, 1,                                !- X,Y,Z Vertex 2 {m}
  1, 0, 0,                                !- X,Y,Z Vertex 3 {m}
  1, 1, 0;                                !- X,Y,Z Vertex 4 {m}

SurfaceProperty:ConvectionCoefficients,
  Surface 4,                              !- Surface Name
  Inside,                                 !- Convection Coefficient 1 Location
  Value,                                  !- Convection Coefficient 1 Type
  30;                                     !- Convection Coefficient 1 {W/m2-K}

BuildingSurface:Detailed,
  Surface 5,                              !- Name
  Wall,                                   !- Surface Type
  AdiabaticConst,                         !- Construction Name
  air source heat pump airloop ret air zone, !- Zone Name
  air source heat pump airloop ret air space, !- Space Name
  Adiabatic,                              !- Outside Boundary Condition
  ,                                       !- Outside Boundary Condition Object
  NoSun,                                  !- Sun Exposure
  NoWind,                                 !- Wind Exposure
  ,                                       !- View Factor to Ground
  ,                                       !- Number of Vertices
  1, 0, 1,                                !- X,Y,Z Vertex 1 {m}
  0, 0, 1,                                !- X,Y,Z Vertex 2 {m}
  0, 0, 0,                                !- X,Y,Z Vertex 3 {m}
  1, 0, 0;                                !- X,Y,Z Vertex 4 {m}

SurfaceProperty:ConvectionCoefficients,
  Surface 5,                              !- Surface Name
  Inside,                                 !- Convection Coefficient 1 Location
  Value,                                  !- Convection Coefficient 1 Type
  30;                                     !- Convection Coefficient 1 {W/m2-K}

BuildingSurface:Detailed,
  Surface 6,                              !- Name
  Ceiling,                                !- Surface Type
  AdiabaticConst,                         !- Construction Name
  air source heat pump airloop ret air zone, !- Zone Name
  air source heat pump airloop ret air space, !- Space Name
  Adiabatic,                              !- Outside Boundary Condition
  ,                                       !- Outside Boundary Condition Object
  NoSun,                                  !- Sun Exposure
  NoWind,                                 !- Wind Exposure
  ,                                       !- View Factor to Ground
  ,                                       !- Number of Vertices
  1, 0, 1,                                !- X,Y,Z Vertex 1 {m}
  1, 1, 1,                                !- X,Y,Z Vertex 2 {m}
  0, 1, 1,                                !- X,Y,Z Vertex 3 {m}
  0, 0, 1;                                !- X,Y,Z Vertex 4 {m}

SurfaceProperty:ConvectionCoefficients,
  Surface 6,                              !- Surface Name
  Inside,                                 !- Convection Coefficient 1 Location
  Value,                                  !- Convection Coefficient 1 Type
  30;                                     !- Convection Coefficient 1 {W/m2-K}

OtherEquipment,
  air source heat pump airloop_0 RetCondToRP, !- Name
  None,                                   !- Fuel Type
  air source heat pump airloop ret air space, !- Zone or ZoneList or Space or SpaceList Name
  Always On Discrete,                     !- Schedule Name
  EquipmentLevel,                         !- Design Level Calculation Method
  0,                                      !- Design Level {W}
  ,                                       !- Power per Floor Area {W/m2}
  ,                                       !- Power per Person {W/person}
  0,                                      !- Fraction Latent
  0,                                      !- Fraction Radiant
  0,                                      !- Fraction Lost
  ,                                       !- Carbon Dioxide Generation Rate {m3/s-W}
  duct load;                              !- End-Use Subcategory

Schedule:Constant,
  Always On Discrete,                     !- Name
  OnOff,                                  !- Schedule Type Limits Name
  1;                                      !- Hourly Value

OtherEquipment,
  air source heat pump airloop_0 RetLatLkToRP, !- Name
  None,                                   !- Fuel Type
  air source heat pump airloop ret air space, !- Zone or ZoneList or Space or SpaceList Name
  Always On Discrete,                     !- Schedule Name
  EquipmentLevel,                         !- Design Level Calculation Method
  0,                                      !- Design Level {W}
  ,                                       !- Power per Floor Area {W/m2}
  ,                                       !- Power per Person {W/person}
  1,                                      !- Fraction Latent
  0,                                      !- Fraction Radiant
  0,                                      !- Fraction Lost
  ,                                       !- Carbon Dioxide Generation Rate {m3/s-W}
  duct load;                              !- End-Use Subcategory

OtherEquipment,
  air source heat pump airloop_0 RetSensLkToRP, !- Name
  None,                                   !- Fuel Type
  air source heat pump airloop ret air space, !- Zone or ZoneList or Space or SpaceList Name
  Always On Discrete,                     !- Schedule Name
  EquipmentLevel,                         !- Design Level Calculation Method
  0,                                      !- Design Level {W}
  ,                                       !- Power per Floor Area {W/m2}
  ,                                       !- Power per Person {W/person}
  0,                                      !- Fraction Latent
  0,                                      !- Fraction Radiant
  0,                                      !- Fraction Lost
  ,                                       !- Carbon Dioxide Generation Rate {m3/s-W}
  duct load;                              !- End-Use Subcategory

Zone,
  conditioned space,                      !- Name
  ,                                       !- Direction of Relative North {deg}
  0,                                      !- X Origin {m}
  0,                                      !- Y Origin {m}
  0,                                      !- Z Origin {m}
  ,                                       !- Type
  1,                                      !- Multiplier
  ,                                       !- Ceiling Height {m}
  384.656044105728,                       !- Volume {m3}
  ,                                       !- Floor Area {m2}
  ,                                       !- Zone Inside Convection Algorithm
  ,                                       !- Zone Outside Convection Algorithm
  Yes;                                    !- Part of Total Floor Area

Space,
  conditioned space 1,                    !- Name
  conditioned space,                      !- Zone Name
  ,                                       !- Ceiling Height {m}
  384.656044105728,                       !- Volume {m3}
  ;                                       !- Floor Area {m2}

Shading:Zone:Detailed,
  Window1 overhangs,                      !- Name
  surface Window1,                        !- Base Surface Name
  ,                                       !- Transmittance Schedule Name
  ,                                       !- Number of Vertices
  23.6225013157895, -41.7606921157895, 1.76784, !- X,Y,Z Vertex 1 {m}
  19.5638486842105, -41.7606921157895, 1.76784, !- X,Y,Z Vertex 2 {m}
  19.5638486842105, -42.3702921157895, 1.76784, !- X,Y,Z Vertex 3 {m}
  23.6225013157895, -42.3702921157895, 1.76784; !- X,Y,Z Vertex 4 {m}

Shading:Zone:Detailed,
  Window2 overhangs,                      !- Name
  surface Window2,                        !- Base Surface Name
  ,                                       !- Transmittance Schedule Name
  ,                                       !- Number of Vertices
  -41.7606921157895, 31.2666567157895, 1.58496, !- X,Y,Z Vertex 1 {m}
  -41.7606921157895, 33.3335817157895, 1.58496, !- X,Y,Z Vertex 2 {m}
  -42.3702921157895, 33.3335817157895, 1.58496, !- X,Y,Z Vertex 3 {m}
  -42.3702921157895, 31.2666567157895, 1.58496; !- X,Y,Z Vertex 4 {m}

Shading:Zone:Detailed,
  Window3 overhangs,                      !- Name
  surface Window3,                        !- Base Surface Name
  ,                                       !- Transmittance Schedule Name
  ,                                       !- Number of Vertices
  22.3197141696567, 41.7606921157895, 1.64592, !- X,Y,Z Vertex 1 {m}
  25.2422082873037, 41.7606921157895, 1.64592, !- X,Y,Z Vertex 2 {m}
  25.2422082873037, 42.3702921157895, 1.64592, !- X,Y,Z Vertex 3 {m}
  22.3197141696567, 42.3702921157895, 1.64592; !- X,Y,Z Vertex 4 {m}

Shading:Zone:Detailed,
  Window4 overhangs,                      !- Name
  surface Window4,                        !- Base Surface Name
  ,                                       !- Transmittance Schedule Name
  ,                                       !- Number of Vertices
  41.7606921157895, -30.9028017157895, 1.8288, !- X,Y,Z Vertex 1 {m}
  41.7606921157895, -33.3335817157895, 1.8288, !- X,Y,Z Vertex 2 {m}
  42.3702921157895, -33.3335817157895, 1.8288, !- X,Y,Z Vertex 3 {m}
  42.3702921157895, -30.9028017157895, 1.8288; !- X,Y,Z Vertex 4 {m}

BuildingSurface:Detailed,
  Floor1,                                 !- Name
  Floor,                                  !- Surface Type
  Floor1 construction,                    !- Construction Name
  conditioned space,                      !- Zone Name
  conditioned space 1,                    !- Space Name
  Surface,                                !- Outside Boundary Condition
  Surface 1 Reversed,                     !- Outside Boundary Condition Object
  NoSun,                                  !- Sun Exposure
  NoWind,                                 !- Wind Exposure
  ,                                       !- View Factor to Ground
  ,                                       !- Number of Vertices
  -6.27991564274553, -6.27991564274553, 0.3048, !- X,Y,Z Vertex 1 {m}
  -6.27991564274553, 6.27991564274553, 0.3048, !- X,Y,Z Vertex 2 {m}
  6.27991564274553, 6.27991564274553, 0.3048, !- X,Y,Z Vertex 3 {m}
  6.27991564274553, -6.27991564274553, 0.3048; !- X,Y,Z Vertex 4 {m}

BuildingSurface:Detailed,
  Roof2,                                  !- Name
  Roof,                                   !- Surface Type
  Roof2 construction,                     !- Construction Name
  conditioned space,                      !- Zone Name
  conditioned space 1,                    !- Space Name
  Outdoors,                               !- Outside Boundary Condition
  ,                                       !- Outside Boundary Condition Object
  SunExposed,                             !- Sun Exposure
  WindExposed,                            !- Wind Exposure
  ,                                       !- View Factor to Ground
  ,                                       !- Number of Vertices
  -6.27991564274553, 6.27991564274553, 2.7432, !- X,Y,Z Vertex 1 {m}
  -6.27991564274553, -6.27991564274553, 2.7432, !- X,Y,Z Vertex 2 {m}
  6.27991564274553, -6.27991564274553, 2.7432, !- X,Y,Z Vertex 3 {m}
  6.27991564274553, 6.27991564274553, 2.7432; !- X,Y,Z Vertex 4 {m}

BuildingSurface:Detailed,
  surface Door1,                          !- Name
  Wall,                                   !- Surface Type
  AdiabaticWallConstruction 1,            !- Construction Name
  conditioned space,                      !- Zone Name
  conditioned space 1,                    !- Space Name
  Outdoors,                               !- Outside Boundary Condition
  ,                                       !- Outside Boundary Condition Object
  SunExposed,                             !- Sun Exposure
  WindExposed,                            !- Wind Exposure
  ,                                       !- View Factor to Ground
  ,                                       !- Number of Vertices
  25.8655908430358, 41.7606921157895, 0.303952155732047, !- X,Y,Z Vertex 1 {m}
  25.8655908430358, 41.7606921157895, 2.33866384426795, !- X,Y,Z Vertex 2 {m}
  26.7812295600574, 41.7606921157895, 2.33866384426795, !- X,Y,Z Vertex 3 {m}
  26.7812295600574, 41.7606921157895, 0.303952155732047; !- X,Y,Z Vertex 4 {m}

FenestrationSurface:Detailed,
  Door1,                                  !- Name
  Door,                                   !- Surface Type
  Door,                                   !- Construction Name
  surface Door1,                          !- Building Surface Name
  ,                                       !- Outside Boundary Condition Object
  ,                                       !- View Factor to Ground
  ,                                       !- Frame and Divider Name
  ,                                       !- Multiplier
  ,                                       !- Number of Vertices
  25.8664386873037, 41.7606921157895, 0.3048, !- X,Y,Z Vertex 1 {m}
  25.8664386873037, 41.7606921157895, 2.337816, !- X,Y,Z Vertex 2 {m}
  26.7803817157895, 41.7606921157895, 2.337816, !- X,Y,Z Vertex 3 {m}
  26.7803817157895, 41.7606921157895, 0.3048; !- X,Y,Z Vertex 4 {m}

BuildingSurface:Detailed,
  surface Window1,                        !- Name
  Wall,                                   !- Surface Type
  AdiabaticWallConstruction,              !- Construction Name
  conditioned space,                      !- Zone Name
  conditioned space 1,                    !- Space Name
  Outdoors,                               !- Outside Boundary Condition
  ,                                       !- Outside Boundary Condition Object
  SunExposed,                             !- Sun Exposure
  WindExposed,                            !- Wind Exposure
  ,                                       !- View Factor to Ground
  ,                                       !- Number of Vertices
  23.3182438060562, -41.7606921157895, 0.304257509733267, !- X,Y,Z Vertex 1 {m}
  23.3182438060562, -41.7606921157895, 1.46358249026673, !- X,Y,Z Vertex 2 {m}
  19.8681061939438, -41.7606921157895, 1.46358249026673, !- X,Y,Z Vertex 3 {m}
  19.8681061939438, -41.7606921157895, 0.304257509733267; !- X,Y,Z Vertex 4 {m}

FenestrationSurface:Detailed,
  Window1,                                !- Name
  Window,                                 !- Surface Type
  WindowConstruction,                     !- Construction Name
  surface Window1,                        !- Building Surface Name
  ,                                       !- Outside Boundary Condition Object
  ,                                       !- View Factor to Ground
  ,                                       !- Frame and Divider Name
  ,                                       !- Multiplier
  ,                                       !- Number of Vertices
  23.3177013157895, -41.7606921157895, 0.3048, !- X,Y,Z Vertex 1 {m}
  23.3177013157895, -41.7606921157895, 1.46304, !- X,Y,Z Vertex 2 {m}
  19.8686486842105, -41.7606921157895, 1.46304, !- X,Y,Z Vertex 3 {m}
  19.8686486842105, -41.7606921157895, 0.3048; !- X,Y,Z Vertex 4 {m}

SurfaceProperty:IncidentSolarMultiplier,
  Window1,                                !- Surface Name
  1,                                      !- Incident Solar Multiplier {dimensionless}
  trans schedule winter=0.85 summer=0.7;  !- Incident Solar Multiplier Schedule Name

ScheduleTypeLimits,
  Fractional,                             !- Name
  0,                                      !- Lower Limit Value {BasedOnField A3}
  1,                                      !- Upper Limit Value {BasedOnField A3}
  Continuous;                             !- Numeric Type

Schedule:Day:Interval,
  trans schedule winter=0.85 summer=0.7 day, !- Name
  Fractional,                             !- Schedule Type Limits Name
  No,                                     !- Interpolate to Timestep
  24:00,                                  !- Time 1 {hh:mm}
  0.85;                                   !- Value Until Time 1

Schedule:Day:Interval,
  trans schedule winter=0.85 summer=0.7 day 1, !- Name
  Fractional,                             !- Schedule Type Limits Name
  No,                                     !- Interpolate to Timestep
  24:00,                                  !- Time 1 {hh:mm}
  0.7;                                    !- Value Until Time 1

Schedule:Week:Daily,
  trans schedule winter=0.85 summer=0.7 Week Rule - Jan1-May26, !- Name
  trans schedule winter=0.85 summer=0.7 day, !- Sunday Schedule:Day Name
  trans schedule winter=0.85 summer=0.7 day, !- Monday Schedule:Day Name
  trans schedule winter=0.85 summer=0.7 day, !- Tuesday Schedule:Day Name
  trans schedule winter=0.85 summer=0.7 day, !- Wednesday Schedule:Day Name
  trans schedule winter=0.85 summer=0.7 day, !- Thursday Schedule:Day Name
  trans schedule winter=0.85 summer=0.7 day, !- Friday Schedule:Day Name
  trans schedule winter=0.85 summer=0.7 day, !- Saturday Schedule:Day Name
  trans schedule winter=0.85 summer=0.7 default day, !- Holiday Schedule:Day Name
  trans schedule winter=0.85 summer=0.7 default day, !- SummerDesignDay Schedule:Day Name
  trans schedule winter=0.85 summer=0.7 default day, !- WinterDesignDay Schedule:Day Name
  trans schedule winter=0.85 summer=0.7 default day, !- CustomDay1 Schedule:Day Name
  trans schedule winter=0.85 summer=0.7 default day; !- CustomDay2 Schedule:Day Name

Schedule:Week:Daily,
  trans schedule winter=0.85 summer=0.7 Week Rule - May27-Jun2, !- Name
  trans schedule winter=0.85 summer=0.7 day, !- Sunday Schedule:Day Name
  trans schedule winter=0.85 summer=0.7 day, !- Monday Schedule:Day Name
  trans schedule winter=0.85 summer=0.7 day, !- Tuesday Schedule:Day Name
  trans schedule winter=0.85 summer=0.7 day, !- Wednesday Schedule:Day Name
  trans schedule winter=0.85 summer=0.7 day, !- Thursday Schedule:Day Name
  trans schedule winter=0.85 summer=0.7 day 1, !- Friday Schedule:Day Name
  trans schedule winter=0.85 summer=0.7 day 1, !- Saturday Schedule:Day Name
  trans schedule winter=0.85 summer=0.7 default day, !- Holiday Schedule:Day Name
  trans schedule winter=0.85 summer=0.7 default day, !- SummerDesignDay Schedule:Day Name
  trans schedule winter=0.85 summer=0.7 default day, !- WinterDesignDay Schedule:Day Name
  trans schedule winter=0.85 summer=0.7 default day, !- CustomDay1 Schedule:Day Name
  trans schedule winter=0.85 summer=0.7 default day; !- CustomDay2 Schedule:Day Name

Schedule:Day:Interval,
  trans schedule winter=0.85 summer=0.7 day 2, !- Name
  Fractional,                             !- Schedule Type Limits Name
  No,                                     !- Interpolate to Timestep
  24:00,                                  !- Time 1 {hh:mm}
  0.85;                                   !- Value Until Time 1

Schedule:Week:Daily,
  trans schedule winter=0.85 summer=0.7 Week Rule - Jun3-Sep29, !- Name
  trans schedule winter=0.85 summer=0.7 day 1, !- Sunday Schedule:Day Name
  trans schedule winter=0.85 summer=0.7 day 1, !- Monday Schedule:Day Name
  trans schedule winter=0.85 summer=0.7 day 1, !- Tuesday Schedule:Day Name
  trans schedule winter=0.85 summer=0.7 day 1, !- Wednesday Schedule:Day Name
  trans schedule winter=0.85 summer=0.7 day 1, !- Thursday Schedule:Day Name
  trans schedule winter=0.85 summer=0.7 day 1, !- Friday Schedule:Day Name
  trans schedule winter=0.85 summer=0.7 day 1, !- Saturday Schedule:Day Name
  trans schedule winter=0.85 summer=0.7 default day, !- Holiday Schedule:Day Name
  trans schedule winter=0.85 summer=0.7 default day, !- SummerDesignDay Schedule:Day Name
  trans schedule winter=0.85 summer=0.7 default day, !- WinterDesignDay Schedule:Day Name
  trans schedule winter=0.85 summer=0.7 default day, !- CustomDay1 Schedule:Day Name
  trans schedule winter=0.85 summer=0.7 default day; !- CustomDay2 Schedule:Day Name

Schedule:Week:Daily,
  trans schedule winter=0.85 summer=0.7 Week Rule - Sep30-Oct6, !- Name
  trans schedule winter=0.85 summer=0.7 day 1, !- Sunday Schedule:Day Name
  trans schedule winter=0.85 summer=0.7 day 2, !- Monday Schedule:Day Name
  trans schedule winter=0.85 summer=0.7 day 2, !- Tuesday Schedule:Day Name
  trans schedule winter=0.85 summer=0.7 day 2, !- Wednesday Schedule:Day Name
  trans schedule winter=0.85 summer=0.7 day 2, !- Thursday Schedule:Day Name
  trans schedule winter=0.85 summer=0.7 day 2, !- Friday Schedule:Day Name
  trans schedule winter=0.85 summer=0.7 day 2, !- Saturday Schedule:Day Name
  trans schedule winter=0.85 summer=0.7 default day, !- Holiday Schedule:Day Name
  trans schedule winter=0.85 summer=0.7 default day, !- SummerDesignDay Schedule:Day Name
  trans schedule winter=0.85 summer=0.7 default day, !- WinterDesignDay Schedule:Day Name
  trans schedule winter=0.85 summer=0.7 default day, !- CustomDay1 Schedule:Day Name
  trans schedule winter=0.85 summer=0.7 default day; !- CustomDay2 Schedule:Day Name

Schedule:Week:Daily,
  trans schedule winter=0.85 summer=0.7 Week Rule - Oct7-Dec31, !- Name
  trans schedule winter=0.85 summer=0.7 day 2, !- Sunday Schedule:Day Name
  trans schedule winter=0.85 summer=0.7 day 2, !- Monday Schedule:Day Name
  trans schedule winter=0.85 summer=0.7 day 2, !- Tuesday Schedule:Day Name
  trans schedule winter=0.85 summer=0.7 day 2, !- Wednesday Schedule:Day Name
  trans schedule winter=0.85 summer=0.7 day 2, !- Thursday Schedule:Day Name
  trans schedule winter=0.85 summer=0.7 day 2, !- Friday Schedule:Day Name
  trans schedule winter=0.85 summer=0.7 day 2, !- Saturday Schedule:Day Name
  trans schedule winter=0.85 summer=0.7 default day, !- Holiday Schedule:Day Name
  trans schedule winter=0.85 summer=0.7 default day, !- SummerDesignDay Schedule:Day Name
  trans schedule winter=0.85 summer=0.7 default day, !- WinterDesignDay Schedule:Day Name
  trans schedule winter=0.85 summer=0.7 default day, !- CustomDay1 Schedule:Day Name
  trans schedule winter=0.85 summer=0.7 default day; !- CustomDay2 Schedule:Day Name

Schedule:Year,
  trans schedule winter=0.85 summer=0.7,  !- Name
  Fractional,                             !- Schedule Type Limits Name
  trans schedule winter=0.85 summer=0.7 Week Rule - Jan1-May26, !- Schedule:Week Name 1
  1,                                      !- Start Month 1
  1,                                      !- Start Day 1
  5,                                      !- End Month 1
  26,                                     !- End Day 1
  trans schedule winter=0.85 summer=0.7 Week Rule - May27-Jun2, !- Schedule:Week Name 2
  5,                                      !- Start Month 2
  27,                                     !- Start Day 2
  6,                                      !- End Month 2
  2,                                      !- End Day 2
  trans schedule winter=0.85 summer=0.7 Week Rule - Jun3-Sep29, !- Schedule:Week Name 3
  6,                                      !- Start Month 3
  3,                                      !- Start Day 3
  9,                                      !- End Month 3
  29,                                     !- End Day 3
  trans schedule winter=0.85 summer=0.7 Week Rule - Sep30-Oct6, !- Schedule:Week Name 4
  9,                                      !- Start Month 4
  30,                                     !- Start Day 4
  10,                                     !- End Month 4
  6,                                      !- End Day 4
  trans schedule winter=0.85 summer=0.7 Week Rule - Oct7-Dec31, !- Schedule:Week Name 5
  10,                                     !- Start Month 5
  7,                                      !- Start Day 5
  12,                                     !- End Month 5
  31;                                     !- End Day 5

Schedule:Day:Interval,
  trans schedule winter=0.85 summer=0.7 default day, !- Name
  Fractional,                             !- Schedule Type Limits Name
  No,                                     !- Interpolate to Timestep
  24:00,                                  !- Time 1 {hh:mm}
  0;                                      !- Value Until Time 1

BuildingSurface:Detailed,
  surface Window2,                        !- Name
  Wall,                                   !- Surface Type
  AdiabaticWallConstruction,              !- Construction Name
  conditioned space,                      !- Zone Name
  conditioned space 1,                    !- Space Name
  Outdoors,                               !- Outside Boundary Condition
  ,                                       !- Outside Boundary Condition Object
  SunExposed,                             !- Sun Exposure
  WindExposed,                            !- Wind Exposure
  ,                                       !- View Factor to Ground
  ,                                       !- Number of Vertices
  -41.7606921157895, 31.5704299115193, 0.303773195729829, !- X,Y,Z Vertex 1 {m}
  -41.7606921157895, 31.5704299115193, 1.28118680427017, !- X,Y,Z Vertex 2 {m}
  -41.7606921157895, 33.0298085200596, 1.28118680427017, !- X,Y,Z Vertex 3 {m}
  -41.7606921157895, 33.0298085200596, 0.303773195729829; !- X,Y,Z Vertex 4 {m}

FenestrationSurface:Detailed,
  Window2,                                !- Name
  Window,                                 !- Surface Type
  WindowConstruction 1,                   !- Construction Name
  surface Window2,                        !- Building Surface Name
  ,                                       !- Outside Boundary Condition Object
  ,                                       !- View Factor to Ground
  ,                                       !- Frame and Divider Name
  ,                                       !- Multiplier
  ,                                       !- Number of Vertices
  -41.7606921157895, 31.5714567157895, 0.3048, !- X,Y,Z Vertex 1 {m}
  -41.7606921157895, 31.5714567157895, 1.28016, !- X,Y,Z Vertex 2 {m}
  -41.7606921157895, 33.0287817157895, 1.28016, !- X,Y,Z Vertex 3 {m}
  -41.7606921157895, 33.0287817157895, 0.3048; !- X,Y,Z Vertex 4 {m}

SurfaceProperty:IncidentSolarMultiplier,
  Window2,                                !- Surface Name
  1,                                      !- Incident Solar Multiplier {dimensionless}
  trans schedule winter=0.85 summer=0.7;  !- Incident Solar Multiplier Schedule Name

BuildingSurface:Detailed,
  surface Window3,                        !- Name
  Wall,                                   !- Surface Type
  AdiabaticWallConstruction,              !- Construction Name
  conditioned space,                      !- Zone Name
  conditioned space 1,                    !- Space Name
  Outdoors,                               !- Outside Boundary Condition
  ,                                       !- Outside Boundary Condition Object
  SunExposed,                             !- Sun Exposure
  WindExposed,                            !- Wind Exposure
  ,                                       !- View Factor to Ground
  ,                                       !- Number of Vertices
  22.6237680583159, 41.7606921157895, 0.304053888659263, !- X,Y,Z Vertex 1 {m}
  22.6237680583159, 41.7606921157895, 1.34186611134074, !- X,Y,Z Vertex 2 {m}
  24.9381543986445, 41.7606921157895, 1.34186611134074, !- X,Y,Z Vertex 3 {m}
  24.9381543986445, 41.7606921157895, 0.304053888659263; !- X,Y,Z Vertex 4 {m}

FenestrationSurface:Detailed,
  Window3,                                !- Name
  Window,                                 !- Surface Type
  WindowConstruction 2,                   !- Construction Name
  surface Window3,                        !- Building Surface Name
  ,                                       !- Outside Boundary Condition Object
  ,                                       !- View Factor to Ground
  ,                                       !- Frame and Divider Name
  ,                                       !- Multiplier
  ,                                       !- Number of Vertices
  22.6245141696567, 41.7606921157895, 0.3048, !- X,Y,Z Vertex 1 {m}
  22.6245141696567, 41.7606921157895, 1.34112, !- X,Y,Z Vertex 2 {m}
  24.9374082873037, 41.7606921157895, 1.34112, !- X,Y,Z Vertex 3 {m}
  24.9374082873037, 41.7606921157895, 0.3048; !- X,Y,Z Vertex 4 {m}

SurfaceProperty:IncidentSolarMultiplier,
  Window3,                                !- Surface Name
  1,                                      !- Incident Solar Multiplier {dimensionless}
  trans schedule winter=0.85 summer=0.7;  !- Incident Solar Multiplier Schedule Name

BuildingSurface:Detailed,
  surface Window4,                        !- Name
  Wall,                                   !- Surface Type
  AdiabaticWallConstruction,              !- Construction Name
  conditioned space,                      !- Zone Name
  conditioned space 1,                    !- Space Name
  Outdoors,                               !- Outside Boundary Condition
  ,                                       !- Outside Boundary Condition Object
  SunExposed,                             !- Sun Exposure
  WindExposed,                            !- Wind Exposure
  ,                                       !- View Factor to Ground
  ,                                       !- Number of Vertices
  41.7606921157895, -31.2067798944318, 0.30397817864237, !- X,Y,Z Vertex 1 {m}
  41.7606921157895, -31.2067798944318, 1.52482182135763, !- X,Y,Z Vertex 2 {m}
  41.7606921157895, -33.0296035371471, 1.52482182135763, !- X,Y,Z Vertex 3 {m}
  41.7606921157895, -33.0296035371471, 0.30397817864237; !- X,Y,Z Vertex 4 {m}

FenestrationSurface:Detailed,
  Window4,                                !- Name
  Window,                                 !- Surface Type
  WindowConstruction 3,                   !- Construction Name
  surface Window4,                        !- Building Surface Name
  ,                                       !- Outside Boundary Condition Object
  ,                                       !- View Factor to Ground
  ,                                       !- Frame and Divider Name
  ,                                       !- Multiplier
  ,                                       !- Number of Vertices
  41.7606921157895, -31.2076017157895, 0.3048, !- X,Y,Z Vertex 1 {m}
  41.7606921157895, -31.2076017157895, 1.524, !- X,Y,Z Vertex 2 {m}
  41.7606921157895, -33.0287817157895, 1.524, !- X,Y,Z Vertex 3 {m}
  41.7606921157895, -33.0287817157895, 0.3048; !- X,Y,Z Vertex 4 {m}

SurfaceProperty:IncidentSolarMultiplier,
  Window4,                                !- Surface Name
  1,                                      !- Incident Solar Multiplier {dimensionless}
  trans schedule winter=0.85 summer=0.7;  !- Incident Solar Multiplier Schedule Name

BuildingSurface:Detailed,
  Wall3,                                  !- Name
  Wall,                                   !- Surface Type
  Wall3 construction,                     !- Construction Name
  conditioned space,                      !- Zone Name
  conditioned space 1,                    !- Space Name
  Outdoors,                               !- Outside Boundary Condition
  ,                                       !- Outside Boundary Condition Object
  SunExposed,                             !- Sun Exposure
  WindExposed,                            !- Wind Exposure
  ,                                       !- View Factor to Ground
  ,                                       !- Number of Vertices
  40.8316617157895, -41.7606921157895, 0.3048, !- X,Y,Z Vertex 1 {m}
  40.8316617157895, -41.7606921157895, 2.7432, !- X,Y,Z Vertex 2 {m}
  24.2467317157895, -41.7606921157895, 2.7432, !- X,Y,Z Vertex 3 {m}
  24.2467317157895, -41.7606921157895, 0.3048; !- X,Y,Z Vertex 4 {m}

BuildingSurface:Detailed,
  Wall4,                                  !- Name
  Wall,                                   !- Surface Type
  Wall4 construction,                     !- Construction Name
  conditioned space,                      !- Zone Name
  conditioned space 1,                    !- Space Name
  Outdoors,                               !- Outside Boundary Condition
  ,                                       !- Outside Boundary Condition Object
  SunExposed,                             !- Sun Exposure
  WindExposed,                            !- Wind Exposure
  ,                                       !- View Factor to Ground
  ,                                       !- Number of Vertices
  -41.7606921157895, 16.5155559157895, 0.3048, !- X,Y,Z Vertex 1 {m}
  -41.7606921157895, 16.5155559157895, 2.7432, !- X,Y,Z Vertex 2 {m}
  -41.7606921157895, 22.3981959157895, 2.7432, !- X,Y,Z Vertex 3 {m}
  -41.7606921157895, 22.3981959157895, 0.3048; !- X,Y,Z Vertex 4 {m}

BuildingSurface:Detailed,
  Wall5,                                  !- Name
  Wall,                                   !- Surface Type
  Wall5 construction,                     !- Construction Name
  conditioned space,                      !- Zone Name
  conditioned space 1,                    !- Space Name
  Surface,                                !- Outside Boundary Condition
  Wall5 Reversed,                         !- Outside Boundary Condition Object
  NoSun,                                  !- Sun Exposure
  NoWind,                                 !- Wind Exposure
  ,                                       !- View Factor to Ground
  ,                                       !- Number of Vertices
  -3.6576, 0, 0.3048,                     !- X,Y,Z Vertex 1 {m}
  -3.6576, 0, 2.7432,                     !- X,Y,Z Vertex 2 {m}
  3.6576, 0, 2.7432,                      !- X,Y,Z Vertex 3 {m}
  3.6576, 0, 0.3048;                      !- X,Y,Z Vertex 4 {m}

BuildingSurface:Detailed,
  Wall6,                                  !- Name
  Wall,                                   !- Surface Type
  Wall6 construction,                     !- Construction Name
  conditioned space,                      !- Zone Name
  conditioned space 1,                    !- Space Name
  Surface,                                !- Outside Boundary Condition
  Wall6 Reversed,                         !- Outside Boundary Condition Object
  NoSun,                                  !- Sun Exposure
  NoWind,                                 !- Wind Exposure
  ,                                       !- View Factor to Ground
  ,                                       !- Number of Vertices
  3.35945109942102e-16, -1.8288, 0.3048,  !- X,Y,Z Vertex 1 {m}
  3.35945109942102e-16, -1.8288, 2.7432,  !- X,Y,Z Vertex 2 {m}
  -3.35945109942102e-16, 1.8288, 2.7432,  !- X,Y,Z Vertex 3 {m}
  -3.35945109942102e-16, 1.8288, 0.3048;  !- X,Y,Z Vertex 4 {m}

BuildingSurface:Detailed,
  Wall7,                                  !- Name
  Wall,                                   !- Surface Type
  Wall7 construction,                     !- Construction Name
  conditioned space,                      !- Zone Name
  conditioned space 1,                    !- Space Name
  Outdoors,                               !- Outside Boundary Condition
  ,                                       !- Outside Boundary Condition Object
  SunExposed,                             !- Sun Exposure
  WindExposed,                            !- Wind Exposure
  ,                                       !- View Factor to Ground
  ,                                       !- Number of Vertices
  4.28820336965666, 41.7606921157895, 0.3048, !- X,Y,Z Vertex 1 {m}
  4.28820336965666, 41.7606921157895, 2.7432, !- X,Y,Z Vertex 2 {m}
  13.4512533696567, 41.7606921157895, 2.7432, !- X,Y,Z Vertex 3 {m}
  13.4512533696567, 41.7606921157895, 0.3048; !- X,Y,Z Vertex 4 {m}

BuildingSurface:Detailed,
  Wall8,                                  !- Name
  Wall,                                   !- Surface Type
  Wall8 construction,                     !- Construction Name
  conditioned space,                      !- Zone Name
  conditioned space 1,                    !- Space Name
  Outdoors,                               !- Outside Boundary Condition
  ,                                       !- Outside Boundary Condition Object
  SunExposed,                             !- Sun Exposure
  WindExposed,                            !- Wind Exposure
  ,                                       !- View Factor to Ground
  ,                                       !- Number of Vertices
  41.7606921157895, -21.0659913157895, 0.3048, !- X,Y,Z Vertex 1 {m}
  41.7606921157895, -21.0659913157895, 2.7432, !- X,Y,Z Vertex 2 {m}
  41.7606921157895, -30.2785713157895, 2.7432, !- X,Y,Z Vertex 3 {m}
  41.7606921157895, -30.2785713157895, 0.3048; !- X,Y,Z Vertex 4 {m}

InternalMass,
  furniture mass conditioned space 1,     !- Name
  furniture construction conditioned space 1, !- Construction Name
  conditioned space,                      !- Zone or ZoneList Name
  conditioned space 1,                    !- Space or SpaceList Name
  63.09974;                               !- Surface Area {m2}

InternalMass,
  partition wall mass,                    !- Name
  PartitionWallConstruction,              !- Construction Name
  conditioned space,                      !- Zone or ZoneList Name
  conditioned space 1,                    !- Space or SpaceList Name
  157.74936;                              !- Surface Area {m2}

Lights,
  interior lighting,                      !- Name
  conditioned space 1,                    !- Zone or ZoneList or Space or SpaceList Name
  lighting_interior,                      !- Schedule Name
  LightingLevel,                          !- Design Level Calculation Method
  940.38791020563,                        !- Lighting Level {W}
  ,                                       !- Watts per Floor Area {W/m2}
  ,                                       !- Watts per Person {W/person}
  0,                                      !- Return Air Fraction
  0.6,                                    !- Fraction Radiant
  0.2,                                    !- Fraction Visible
  1,                                      !- Fraction Replaceable
  interior lighting;                      !- End-Use Subcategory

Schedule:File,
  lighting_interior,                      !- Name
  Fractional,                             !- Schedule Type Limits Name
  in.schedules.csv,                       !- File Name
  4,                                      !- Column Number
  1,                                      !- Rows to Skip at Top
  8760,                                   !- Number of Hours of Data
  Comma,                                  !- Column Separator
  Yes,                                    !- Interpolate to Timestep
  15,                                     !- Minutes per Item
  Yes;                                    !- Adjust Schedule for Daylight Savings

People,
  occupants,                              !- Name
  conditioned space 1,                    !- Zone or ZoneList or Space or SpaceList Name
  occupants,                              !- Number of People Schedule Name
  People,                                 !- Number of People Calculation Method
  4,                                      !- Number of People
  ,                                       !- People per Floor Area {person/m2}
  ,                                       !- Floor Area per Person {m2/person}
  0.314170909090909,                      !- Fraction Radiant
  0.563030303030303,                      !- Sensible Heat Fraction
  occupants activity schedule,            !- Activity Level Schedule Name
  0,                                      !- Carbon Dioxide Generation Rate {m3/s-W}
  No,                                     !- Enable ASHRAE 55 Comfort Warnings
  EnclosureAveraged;                      !- Mean Radiant Temperature Calculation Type

Schedule:File,
  occupants,                              !- Name
  Fractional,                             !- Schedule Type Limits Name
  in.schedules.csv,                       !- File Name
  1,                                      !- Column Number
  1,                                      !- Rows to Skip at Top
  8760,                                   !- Number of Hours of Data
  Comma,                                  !- Column Separator
  Yes,                                    !- Interpolate to Timestep
  15,                                     !- Minutes per Item
  Yes;                                    !- Adjust Schedule for Daylight Savings

Schedule:Constant,
  occupants activity schedule,            !- Name
  ActivityLevel,                          !- Schedule Type Limits Name
  117.228428068889;                       !- Hourly Value

ElectricEquipment,
  clothes washer,                         !- Name
  conditioned space 1,                    !- Zone or ZoneList or Space or SpaceList Name
  clothes_washer,                         !- Schedule Name
  EquipmentLevel,                         !- Design Level Calculation Method
  244.768853191274,                       !- Design Level {W}
  ,                                       !- Watts per Floor Area {W/m2}
  ,                                       !- Watts per Person {W/person}
  0.03,                                   !- Fraction Latent
  0.162,                                  !- Fraction Radiant
  0.7,                                    !- Fraction Lost
  clothes washer;                         !- End-Use Subcategory

Schedule:File,
  clothes_washer,                         !- Name
  Fractional,                             !- Schedule Type Limits Name
  in.schedules.csv,                       !- File Name
  7,                                      !- Column Number
  1,                                      !- Rows to Skip at Top
  8760,                                   !- Number of Hours of Data
  Comma,                                  !- Column Separator
  Yes,                                    !- Interpolate to Timestep
  15,                                     !- Minutes per Item
  Yes;                                    !- Adjust Schedule for Daylight Savings

ElectricEquipment,
  cooking range,                          !- Name
  conditioned space 1,                    !- Zone or ZoneList or Space or SpaceList Name
  cooking_range,                          !- Schedule Name
  EquipmentLevel,                         !- Design Level Calculation Method
  933.025467280953,                       !- Design Level {W}
  ,                                       !- Watts per Floor Area {W/m2}
  ,                                       !- Watts per Person {W/person}
  0.0799999999999999,                     !- Fraction Latent
  0.432,                                  !- Fraction Radiant
  0.2,                                    !- Fraction Lost
  cooking range;                          !- End-Use Subcategory

Schedule:File,
  cooking_range,                          !- Name
  Fractional,                             !- Schedule Type Limits Name
  in.schedules.csv,                       !- File Name
  8,                                      !- Column Number
  1,                                      !- Rows to Skip at Top
  8760,                                   !- Number of Hours of Data
  Comma,                                  !- Column Separator
  Yes,                                    !- Interpolate to Timestep
  15,                                     !- Minutes per Item
  Yes;                                    !- Adjust Schedule for Daylight Savings

ElectricEquipment,
  fridge,                                 !- Name
  conditioned space 1,                    !- Zone or ZoneList or Space or SpaceList Name
  fridge schedule,                        !- Schedule Name
  EquipmentLevel,                         !- Design Level Calculation Method
  49.4292237442922,                       !- Design Level {W}
  ,                                       !- Watts per Floor Area {W/m2}
  ,                                       !- Watts per Person {W/person}
  0,                                      !- Fraction Latent
  0.6,                                    !- Fraction Radiant
  0,                                      !- Fraction Lost
  fridge;                                 !- End-Use Subcategory

Schedule:Constant,
  fridge schedule,                        !- Name
  Fractional,                             !- Schedule Type Limits Name
  0;                                      !- Hourly Value

ElectricEquipment,
  mech vent bath fan 0,                   !- Name
  conditioned space 1,                    !- Zone or ZoneList or Space or SpaceList Name
  mech vent bath fan 0 schedule,          !- Schedule Name
  EquipmentLevel,                         !- Design Level Calculation Method
  30,                                     !- Design Level {W}
  ,                                       !- Watts per Floor Area {W/m2}
  ,                                       !- Watts per Person {W/person}
  0,                                      !- Fraction Latent
  0,                                      !- Fraction Radiant
  1,                                      !- Fraction Lost
  mech vent;                              !- End-Use Subcategory

Schedule:Day:Interval,
  mech vent bath fan 0 schedule day,      !- Name
  Fractional,                             !- Schedule Type Limits Name
  No,                                     !- Interpolate to Timestep
  18:00,                                  !- Time 1 {hh:mm}
  0,                                      !- Value Until Time 1
  19:00,                                  !- Time 2 {hh:mm}
  1,                                      !- Value Until Time 2
  24:00,                                  !- Time 3 {hh:mm}
  0;                                      !- Value Until Time 3

Schedule:Week:Daily,
  mech vent bath fan 0 schedule Week Rule - Jan1-Dec31, !- Name
  mech vent bath fan 0 schedule day,      !- Sunday Schedule:Day Name
  mech vent bath fan 0 schedule day,      !- Monday Schedule:Day Name
  mech vent bath fan 0 schedule day,      !- Tuesday Schedule:Day Name
  mech vent bath fan 0 schedule day,      !- Wednesday Schedule:Day Name
  mech vent bath fan 0 schedule day,      !- Thursday Schedule:Day Name
  mech vent bath fan 0 schedule day,      !- Friday Schedule:Day Name
  mech vent bath fan 0 schedule day,      !- Saturday Schedule:Day Name
  mech vent bath fan 0 schedule default day, !- Holiday Schedule:Day Name
  mech vent bath fan 0 schedule default day, !- SummerDesignDay Schedule:Day Name
  mech vent bath fan 0 schedule default day, !- WinterDesignDay Schedule:Day Name
  mech vent bath fan 0 schedule default day, !- CustomDay1 Schedule:Day Name
  mech vent bath fan 0 schedule default day; !- CustomDay2 Schedule:Day Name

Schedule:Year,
  mech vent bath fan 0 schedule,          !- Name
  Fractional,                             !- Schedule Type Limits Name
  mech vent bath fan 0 schedule Week Rule - Jan1-Dec31, !- Schedule:Week Name 1
  1,                                      !- Start Month 1
  1,                                      !- Start Day 1
  12,                                     !- End Month 1
  31;                                     !- End Day 1

Schedule:Day:Interval,
  mech vent bath fan 0 schedule default day, !- Name
  Fractional,                             !- Schedule Type Limits Name
  No,                                     !- Interpolate to Timestep
  24:00,                                  !- Time 1 {hh:mm}
  0;                                      !- Value Until Time 1

ElectricEquipment,
  mech vent house fan,                    !- Name
  conditioned space 1,                    !- Zone or ZoneList or Space or SpaceList Name
  mech vent house fan schedule,           !- Schedule Name
  EquipmentLevel,                         !- Design Level Calculation Method
  0,                                      !- Design Level {W}
  ,                                       !- Watts per Floor Area {W/m2}
  ,                                       !- Watts per Person {W/person}
  0,                                      !- Fraction Latent
  0,                                      !- Fraction Radiant
  1,                                      !- Fraction Lost
  mech vent;                              !- End-Use Subcategory

Schedule:Constant,
  mech vent house fan schedule,           !- Name
  Fractional,                             !- Schedule Type Limits Name
  1;                                      !- Hourly Value

ElectricEquipment,
  mech vent house fan cfis,               !- Name
  conditioned space 1,                    !- Zone or ZoneList or Space or SpaceList Name
  mech vent house fan cfis schedule,      !- Schedule Name
  EquipmentLevel,                         !- Design Level Calculation Method
  0,                                      !- Design Level {W}
  ,                                       !- Watts per Floor Area {W/m2}
  ,                                       !- Watts per Person {W/person}
  0,                                      !- Fraction Latent
  0,                                      !- Fraction Radiant
  0,                                      !- Fraction Lost
  mech vent;                              !- End-Use Subcategory

Schedule:Constant,
  mech vent house fan cfis schedule,      !- Name
  Fractional,                             !- Schedule Type Limits Name
  1;                                      !- Hourly Value

ElectricEquipment,
  mech vent range fan 0,                  !- Name
  conditioned space 1,                    !- Zone or ZoneList or Space or SpaceList Name
  mech vent range fan 0 schedule,         !- Schedule Name
  EquipmentLevel,                         !- Design Level Calculation Method
  30,                                     !- Design Level {W}
  ,                                       !- Watts per Floor Area {W/m2}
  ,                                       !- Watts per Person {W/person}
  0,                                      !- Fraction Latent
  0,                                      !- Fraction Radiant
  1,                                      !- Fraction Lost
  mech vent;                              !- End-Use Subcategory

Schedule:Day:Interval,
  mech vent range fan 0 schedule day,     !- Name
  Fractional,                             !- Schedule Type Limits Name
  No,                                     !- Interpolate to Timestep
  17:00,                                  !- Time 1 {hh:mm}
  0,                                      !- Value Until Time 1
  18:00,                                  !- Time 2 {hh:mm}
  1,                                      !- Value Until Time 2
  24:00,                                  !- Time 3 {hh:mm}
  0;                                      !- Value Until Time 3

Schedule:Week:Daily,
  mech vent range fan 0 schedule Week Rule - Jan1-Dec31, !- Name
  mech vent range fan 0 schedule day,     !- Sunday Schedule:Day Name
  mech vent range fan 0 schedule day,     !- Monday Schedule:Day Name
  mech vent range fan 0 schedule day,     !- Tuesday Schedule:Day Name
  mech vent range fan 0 schedule day,     !- Wednesday Schedule:Day Name
  mech vent range fan 0 schedule day,     !- Thursday Schedule:Day Name
  mech vent range fan 0 schedule day,     !- Friday Schedule:Day Name
  mech vent range fan 0 schedule day,     !- Saturday Schedule:Day Name
  mech vent range fan 0 schedule default day, !- Holiday Schedule:Day Name
  mech vent range fan 0 schedule default day, !- SummerDesignDay Schedule:Day Name
  mech vent range fan 0 schedule default day, !- WinterDesignDay Schedule:Day Name
  mech vent range fan 0 schedule default day, !- CustomDay1 Schedule:Day Name
  mech vent range fan 0 schedule default day; !- CustomDay2 Schedule:Day Name

Schedule:Year,
  mech vent range fan 0 schedule,         !- Name
  Fractional,                             !- Schedule Type Limits Name
  mech vent range fan 0 schedule Week Rule - Jan1-Dec31, !- Schedule:Week Name 1
  1,                                      !- Start Month 1
  1,                                      !- Start Day 1
  12,                                     !- End Month 1
  31;                                     !- End Day 1

Schedule:Day:Interval,
  mech vent range fan 0 schedule default day, !- Name
  Fractional,                             !- Schedule Type Limits Name
  No,                                     !- Interpolate to Timestep
  24:00,                                  !- Time 1 {hh:mm}
  0;                                      !- Value Until Time 1

ElectricEquipment,
  misc plug loads,                        !- Name
  conditioned space 1,                    !- Zone or ZoneList or Space or SpaceList Name
  plug_loads_other,                       !- Schedule Name
  EquipmentLevel,                         !- Design Level Calculation Method
  404.056024358804,                       !- Design Level {W}
  ,                                       !- Watts per Floor Area {W/m2}
  ,                                       !- Watts per Person {W/person}
  0.021,                                  !- Fraction Latent
  0.558,                                  !- Fraction Radiant
  0.0489999999999999,                     !- Fraction Lost
  misc plug loads;                        !- End-Use Subcategory

Schedule:File,
  plug_loads_other,                       !- Name
  Fractional,                             !- Schedule Type Limits Name
  in.schedules.csv,                       !- File Name
  2,                                      !- Column Number
  1,                                      !- Rows to Skip at Top
  8760,                                   !- Number of Hours of Data
  Comma,                                  !- Column Separator
  Yes,                                    !- Interpolate to Timestep
  15,                                     !- Minutes per Item
  Yes;                                    !- Adjust Schedule for Daylight Savings

ElectricEquipment,
  misc tv,                                !- Name
  conditioned space 1,                    !- Zone or ZoneList or Space or SpaceList Name
  plug_loads_tv,                          !- Schedule Name
  EquipmentLevel,                         !- Design Level Calculation Method
  508.254969156773,                       !- Design Level {W}
  ,                                       !- Watts per Floor Area {W/m2}
  ,                                       !- Watts per Person {W/person}
  0,                                      !- Fraction Latent
  0.6,                                    !- Fraction Radiant
  0,                                      !- Fraction Lost
  misc tv;                                !- End-Use Subcategory

Schedule:File,
  plug_loads_tv,                          !- Name
  Fractional,                             !- Schedule Type Limits Name
  in.schedules.csv,                       !- File Name
  3,                                      !- Column Number
  1,                                      !- Rows to Skip at Top
  8760,                                   !- Number of Hours of Data
  Comma,                                  !- Column Separator
  Yes,                                    !- Interpolate to Timestep
  15,                                     !- Minutes per Item
  Yes;                                    !- Adjust Schedule for Daylight Savings

ElectricEquipment,
  whole house fan,                        !- Name
  conditioned space 1,                    !- Zone or ZoneList or Space or SpaceList Name
  Always On Discrete,                     !- Schedule Name
  EquipmentLevel,                         !- Design Level Calculation Method
  0,                                      !- Design Level {W}
  ,                                       !- Watts per Floor Area {W/m2}
  ,                                       !- Watts per Person {W/person}
  0,                                      !- Fraction Latent
  0,                                      !- Fraction Radiant
  1,                                      !- Fraction Lost
  whole house fan;                        !- End-Use Subcategory

OtherEquipment,
  air source heat pump airloop_0 SupCondToLv, !- Name
  None,                                   !- Fuel Type
  conditioned space 1,                    !- Zone or ZoneList or Space or SpaceList Name
  Always On Discrete,                     !- Schedule Name
  EquipmentLevel,                         !- Design Level Calculation Method
  0,                                      !- Design Level {W}
  ,                                       !- Power per Floor Area {W/m2}
  ,                                       !- Power per Person {W/person}
  0,                                      !- Fraction Latent
  0,                                      !- Fraction Radiant
  0,                                      !- Fraction Lost
  ,                                       !- Carbon Dioxide Generation Rate {m3/s-W}
  duct load;                              !- End-Use Subcategory

OtherEquipment,
  air source heat pump airloop_0 SupLatLkToCond, !- Name
  None,                                   !- Fuel Type
  conditioned space 1,                    !- Zone or ZoneList or Space or SpaceList Name
  Always On Discrete,                     !- Schedule Name
  EquipmentLevel,                         !- Design Level Calculation Method
  0,                                      !- Design Level {W}
  ,                                       !- Power per Floor Area {W/m2}
  ,                                       !- Power per Person {W/person}
  1,                                      !- Fraction Latent
  0,                                      !- Fraction Radiant
  0,                                      !- Fraction Lost
  ,                                       !- Carbon Dioxide Generation Rate {m3/s-W}
  duct load;                              !- End-Use Subcategory

OtherEquipment,
  air source heat pump airloop_0 SupSensLkToCond, !- Name
  None,                                   !- Fuel Type
  conditioned space 1,                    !- Zone or ZoneList or Space or SpaceList Name
  Always On Discrete,                     !- Schedule Name
  EquipmentLevel,                         !- Design Level Calculation Method
  0,                                      !- Design Level {W}
  ,                                       !- Power per Floor Area {W/m2}
  ,                                       !- Power per Person {W/person}
  0,                                      !- Fraction Latent
  0,                                      !- Fraction Radiant
  0,                                      !- Fraction Lost
  ,                                       !- Carbon Dioxide Generation Rate {m3/s-W}
  duct load;                              !- End-Use Subcategory

OtherEquipment,
  cooking range 1,                        !- Name
  Electricity,                            !- Fuel Type
  conditioned space 1,                    !- Zone or ZoneList or Space or SpaceList Name
  cooking_range,                          !- Schedule Name
  EquipmentLevel,                         !- Design Level Calculation Method
  0,                                      !- Design Level {W}
  ,                                       !- Power per Floor Area {W/m2}
  ,                                       !- Power per Person {W/person}
  0.0799999999999999,                     !- Fraction Latent
  0.432,                                  !- Fraction Radiant
  0.2,                                    !- Fraction Lost
  ,                                       !- Carbon Dioxide Generation Rate {m3/s-W}
  cooking range;                          !- End-Use Subcategory

OtherEquipment,
  general water use latent,               !- Name
  None,                                   !- Fuel Type
  conditioned space 1,                    !- Zone or ZoneList or Space or SpaceList Name
  general water use schedule,             !- Schedule Name
  EquipmentLevel,                         !- Design Level Calculation Method
  81.06150908702,                         !- Design Level {W}
  ,                                       !- Power per Floor Area {W/m2}
  ,                                       !- Power per Person {W/person}
  1,                                      !- Fraction Latent
  0,                                      !- Fraction Radiant
  0,                                      !- Fraction Lost
  ,                                       !- Carbon Dioxide Generation Rate {m3/s-W}
  general water use latent;               !- End-Use Subcategory

Schedule:Day:Interval,
  general water use schedule day,         !- Name
  Fractional,                             !- Schedule Type Limits Name
  No,                                     !- Interpolate to Timestep
  01:00,                                  !- Time 1 {hh:mm}
  0.315068493150685,                      !- Value Until Time 1
  03:00,                                  !- Time 2 {hh:mm}
  0.287671232876712,                      !- Value Until Time 2
  04:00,                                  !- Time 3 {hh:mm}
  0.342465753424658,                      !- Value Until Time 3
  05:00,                                  !- Time 4 {hh:mm}
  0.36986301369863,                       !- Value Until Time 4
  06:00,                                  !- Time 5 {hh:mm}
  0.520547945205479,                      !- Value Until Time 5
  07:00,                                  !- Time 6 {hh:mm}
  0.602739726027397,                      !- Value Until Time 6
  08:00,                                  !- Time 7 {hh:mm}
  0.534246575342466,                      !- Value Until Time 7
  10:00,                                  !- Time 8 {hh:mm}
  0.506849315068493,                      !- Value Until Time 8
  11:00,                                  !- Time 9 {hh:mm}
  0.465753424657534,                      !- Value Until Time 9
  14:00,                                  !- Time 10 {hh:mm}
  0.479452054794521,                      !- Value Until Time 10
  15:00,                                  !- Time 11 {hh:mm}
  0.534246575342466,                      !- Value Until Time 11
  16:00,                                  !- Time 12 {hh:mm}
  0.589041095890411,                      !- Value Until Time 12
  17:00,                                  !- Time 13 {hh:mm}
  0.698630136986301,                      !- Value Until Time 13
  18:00,                                  !- Time 14 {hh:mm}
  0.876712328767123,                      !- Value Until Time 14
  19:00,                                  !- Time 15 {hh:mm}
  0.89041095890411,                       !- Value Until Time 15
  20:00,                                  !- Time 16 {hh:mm}
  0.986301369863014,                      !- Value Until Time 16
  21:00,                                  !- Time 17 {hh:mm}
  1,                                      !- Value Until Time 17
  22:00,                                  !- Time 18 {hh:mm}
  0.863013698630137,                      !- Value Until Time 18
  23:00,                                  !- Time 19 {hh:mm}
  0.616438356164384,                      !- Value Until Time 19
  24:00,                                  !- Time 20 {hh:mm}
  0.465753424657534;                      !- Value Until Time 20

Schedule:Week:Daily,
  general water use schedule Week Rule - Jan1-Dec31, !- Name
  general water use schedule day,         !- Sunday Schedule:Day Name
  general water use schedule day,         !- Monday Schedule:Day Name
  general water use schedule day,         !- Tuesday Schedule:Day Name
  general water use schedule day,         !- Wednesday Schedule:Day Name
  general water use schedule day,         !- Thursday Schedule:Day Name
  general water use schedule day,         !- Friday Schedule:Day Name
  general water use schedule day,         !- Saturday Schedule:Day Name
  general water use schedule default day, !- Holiday Schedule:Day Name
  general water use schedule default day, !- SummerDesignDay Schedule:Day Name
  general water use schedule default day, !- WinterDesignDay Schedule:Day Name
  general water use schedule default day, !- CustomDay1 Schedule:Day Name
  general water use schedule default day; !- CustomDay2 Schedule:Day Name

Schedule:Year,
  general water use schedule,             !- Name
  Fractional,                             !- Schedule Type Limits Name
  general water use schedule Week Rule - Jan1-Dec31, !- Schedule:Week Name 1
  1,                                      !- Start Month 1
  1,                                      !- Start Day 1
  12,                                     !- End Month 1
  31;                                     !- End Day 1

Schedule:Day:Interval,
  general water use schedule default day, !- Name
  Fractional,                             !- Schedule Type Limits Name
  No,                                     !- Interpolate to Timestep
  24:00,                                  !- Time 1 {hh:mm}
  0;                                      !- Value Until Time 1

OtherEquipment,
  general water use sensible,             !- Name
  None,                                   !- Fuel Type
  conditioned space 1,                    !- Zone or ZoneList or Space or SpaceList Name
  general water use schedule,             !- Schedule Name
  EquipmentLevel,                         !- Design Level Calculation Method
  -79.8895354616655,                      !- Design Level {W}
  ,                                       !- Power per Floor Area {W/m2}
  ,                                       !- Power per Person {W/person}
  0,                                      !- Fraction Latent
  0.6,                                    !- Fraction Radiant
  0,                                      !- Fraction Lost
  ,                                       !- Carbon Dioxide Generation Rate {m3/s-W}
  general water use sensible;             !- End-Use Subcategory

OtherEquipment,
  mech vent house fan latent load,        !- Name
  None,                                   !- Fuel Type
  conditioned space 1,                    !- Zone or ZoneList or Space or SpaceList Name
  Always On Discrete,                     !- Schedule Name
  EquipmentLevel,                         !- Design Level Calculation Method
  0,                                      !- Design Level {W}
  ,                                       !- Power per Floor Area {W/m2}
  ,                                       !- Power per Person {W/person}
  1,                                      !- Fraction Latent
  0,                                      !- Fraction Radiant
  0,                                      !- Fraction Lost
  ,                                       !- Carbon Dioxide Generation Rate {m3/s-W}
  mech vent house fan;                    !- End-Use Subcategory

OtherEquipment,
  mech vent house fan sensible load,      !- Name
  None,                                   !- Fuel Type
  conditioned space 1,                    !- Zone or ZoneList or Space or SpaceList Name
  Always On Discrete,                     !- Schedule Name
  EquipmentLevel,                         !- Design Level Calculation Method
  0,                                      !- Design Level {W}
  ,                                       !- Power per Floor Area {W/m2}
  ,                                       !- Power per Person {W/person}
  0,                                      !- Fraction Latent
  0,                                      !- Fraction Radiant
  0,                                      !- Fraction Lost
  ,                                       !- Carbon Dioxide Generation Rate {m3/s-W}
  mech vent house fan;                    !- End-Use Subcategory

ZoneInfiltration:DesignFlowRate,
  infil flow,                             !- Name
  conditioned space 1,                    !- Zone or ZoneList or Space or SpaceList Name
  Always On Discrete,                     !- Schedule Name
  Flow/Zone,                              !- Design Flow Rate Calculation Method
  0,                                      !- Design Flow Rate {m3/s}
  ,                                       !- Flow Rate per Floor Area {m3/s-m2}
  ,                                       !- Flow Rate per Exterior Surface Area {m3/s-m2}
  ,                                       !- Air Changes per Hour {1/hr}
  ,                                       !- Constant Term Coefficient
  ,                                       !- Temperature Term Coefficient
  ,                                       !- Velocity Term Coefficient
  ;                                       !- Velocity Squared Term Coefficient

ZoneInfiltration:DesignFlowRate,
  natural vent flow,                      !- Name
  conditioned space 1,                    !- Zone or ZoneList or Space or SpaceList Name
  Always On Discrete,                     !- Schedule Name
  Flow/Zone,                              !- Design Flow Rate Calculation Method
  0,                                      !- Design Flow Rate {m3/s}
  ,                                       !- Flow Rate per Floor Area {m3/s-m2}
  ,                                       !- Flow Rate per Exterior Surface Area {m3/s-m2}
  ,                                       !- Air Changes per Hour {1/hr}
  ,                                       !- Constant Term Coefficient
  ,                                       !- Temperature Term Coefficient
  ,                                       !- Velocity Term Coefficient
  ;                                       !- Velocity Squared Term Coefficient

ZoneInfiltration:DesignFlowRate,
  whole house fan flow,                   !- Name
  conditioned space 1,                    !- Zone or ZoneList or Space or SpaceList Name
  Always On Discrete,                     !- Schedule Name
  Flow/Zone,                              !- Design Flow Rate Calculation Method
  0,                                      !- Design Flow Rate {m3/s}
  ,                                       !- Flow Rate per Floor Area {m3/s-m2}
  ,                                       !- Flow Rate per Exterior Surface Area {m3/s-m2}
  ,                                       !- Air Changes per Hour {1/hr}
  ,                                       !- Constant Term Coefficient
  ,                                       !- Temperature Term Coefficient
  ,                                       !- Velocity Term Coefficient
  ;                                       !- Velocity Squared Term Coefficient

ZoneMixing,
  air source heat pump airloop_0 ZoneMixDZToCond mix, !- Name
  conditioned space,                      !- Zone or Space Name
  Always On Continuous,                   !- Schedule Name
  Flow/Zone,                              !- Design Flow Rate Calculation Method
  0,                                      !- Design Flow Rate {m3/s}
  ,                                       !- Flow Rate per Floor Area {m3/s-m2}
  ,                                       !- Flow Rate per Person {m3/s-person}
  ,                                       !- Air Changes per Hour {1/hr}
  crawlspace - vented;                    !- Source Zone or Space Name

Schedule:Constant,
  Always On Continuous,                   !- Name
  Fractional 1,                           !- Schedule Type Limits Name
  1;                                      !- Hourly Value

ZoneControl:Thermostat,
  conditioned space Thermostat,           !- Name
  conditioned space,                      !- Zone or ZoneList Name
  conditioned space Thermostat Schedule,  !- Control Type Schedule Name
  ThermostatSetpoint:DualSetpoint,        !- Control 1 Object Type
  conditioned space temperature setpoint, !- Control 1 Name
  ,                                       !- Control 2 Object Type
  ,                                       !- Control 2 Name
  ,                                       !- Control 3 Object Type
  ,                                       !- Control 3 Name
  ,                                       !- Control 4 Object Type
  ,                                       !- Control 4 Name
  0;                                      !- Temperature Difference Between Cutout And Setpoint {deltaC}

Schedule:Compact,
  conditioned space Thermostat Schedule,  !- Name
  conditioned space Thermostat Schedule Type Limits, !- Schedule Type Limits Name
  Through: 12/31,                         !- Field 1
  For: AllDays,                           !- Field 2
  Until: 24:00,                           !- Field 3
  4;                                      !- Field 4

ScheduleTypeLimits,
  conditioned space Thermostat Schedule Type Limits, !- Name
  0,                                      !- Lower Limit Value {BasedOnField A3}
  4,                                      !- Upper Limit Value {BasedOnField A3}
  DISCRETE;                               !- Numeric Type

ThermostatSetpoint:DualSetpoint,
  conditioned space temperature setpoint, !- Name
  heating setpoint,                       !- Heating Setpoint Temperature Schedule Name
  cooling setpoint;                       !- Cooling Setpoint Temperature Schedule Name

ScheduleTypeLimits,
  Temperature,                            !- Name
  ,                                       !- Lower Limit Value {BasedOnField A3}
  ,                                       !- Upper Limit Value {BasedOnField A3}
  Continuous,                             !- Numeric Type
  temperature;                            !- Unit Type

Schedule:Day:Interval,
  heating setpoint day,                   !- Name
  Temperature,                            !- Schedule Type Limits Name
  No,                                     !- Interpolate to Timestep
  09:00,                                  !- Time 1 {hh:mm}
  12.2222222222222,                       !- Value Until Time 1
  24:00,                                  !- Time 2 {hh:mm}
  15.5555555555556;                       !- Value Until Time 2

Schedule:Week:Daily,
  heating setpoint Week Rule - Jan1-Dec31, !- Name
  heating setpoint day,                   !- Sunday Schedule:Day Name
  heating setpoint day,                   !- Monday Schedule:Day Name
  heating setpoint day,                   !- Tuesday Schedule:Day Name
  heating setpoint day,                   !- Wednesday Schedule:Day Name
  heating setpoint day,                   !- Thursday Schedule:Day Name
  heating setpoint day,                   !- Friday Schedule:Day Name
  heating setpoint day,                   !- Saturday Schedule:Day Name
  heating setpoint default day,           !- Holiday Schedule:Day Name
  heating setpoint default day,           !- SummerDesignDay Schedule:Day Name
  heating setpoint default day,           !- WinterDesignDay Schedule:Day Name
  heating setpoint default day,           !- CustomDay1 Schedule:Day Name
  heating setpoint default day;           !- CustomDay2 Schedule:Day Name

Schedule:Year,
  heating setpoint,                       !- Name
  Temperature,                            !- Schedule Type Limits Name
  heating setpoint Week Rule - Jan1-Dec31, !- Schedule:Week Name 1
  1,                                      !- Start Month 1
  1,                                      !- Start Day 1
  12,                                     !- End Month 1
  31;                                     !- End Day 1

Schedule:Day:Interval,
  heating setpoint default day,           !- Name
  Temperature,                            !- Schedule Type Limits Name
  No,                                     !- Interpolate to Timestep
  24:00,                                  !- Time 1 {hh:mm}
  0;                                      !- Value Until Time 1

Schedule:Day:Interval,
  cooling setpoint day,                   !- Name
  Temperature,                            !- Schedule Type Limits Name
  No,                                     !- Interpolate to Timestep
  24:00,                                  !- Time 1 {hh:mm}
  22.2222222222222;                       !- Value Until Time 1

Schedule:Week:Daily,
  cooling setpoint Week Rule - Jan1-Dec31, !- Name
  cooling setpoint day,                   !- Sunday Schedule:Day Name
  cooling setpoint day,                   !- Monday Schedule:Day Name
  cooling setpoint day,                   !- Tuesday Schedule:Day Name
  cooling setpoint day,                   !- Wednesday Schedule:Day Name
  cooling setpoint day,                   !- Thursday Schedule:Day Name
  cooling setpoint day,                   !- Friday Schedule:Day Name
  cooling setpoint day,                   !- Saturday Schedule:Day Name
  cooling setpoint default day,           !- Holiday Schedule:Day Name
  cooling setpoint default day,           !- SummerDesignDay Schedule:Day Name
  cooling setpoint default day,           !- WinterDesignDay Schedule:Day Name
  cooling setpoint default day,           !- CustomDay1 Schedule:Day Name
  cooling setpoint default day;           !- CustomDay2 Schedule:Day Name

Schedule:Year,
  cooling setpoint,                       !- Name
  Temperature,                            !- Schedule Type Limits Name
  cooling setpoint Week Rule - Jan1-Dec31, !- Schedule:Week Name 1
  1,                                      !- Start Month 1
  1,                                      !- Start Day 1
  12,                                     !- End Month 1
  31;                                     !- End Day 1

Schedule:Day:Interval,
  cooling setpoint default day,           !- Name
  Temperature,                            !- Schedule Type Limits Name
  No,                                     !- Interpolate to Timestep
  24:00,                                  !- Time 1 {hh:mm}
  0;                                      !- Value Until Time 1

ZoneHVAC:EquipmentConnections,
  conditioned space,                      !- Zone Name
  conditioned space Equipment List,       !- Zone Conditioning Equipment List Name
  conditioned space Inlet Node List,      !- Zone Air Inlet Node or NodeList Name
  ,                                       !- Zone Air Exhaust Node or NodeList Name
  Node 1,                                 !- Zone Air Node Name
  conditioned space Return Node List;     !- Zone Return Air Node or NodeList Name

NodeList,
  conditioned space Inlet Node List,      !- Name
  Node 8;                                 !- Node Name 1

NodeList,
  conditioned space Return Node List,     !- Name
  Node 9;                                 !- Node Name 1

AirTerminal:SingleDuct:ConstantVolume:NoReheat,
  air source heat pump terminal,          !- Name
  Always On Discrete,                     !- Availability Schedule Name
  Node 10,                                !- Air Inlet Node Name
  Node 8,                                 !- Air Outlet Node Name
  0.4327758054144;                        !- Maximum Air Flow Rate {m3/s}

ZoneHVAC:AirDistributionUnit,
  ADU air source heat pump terminal,      !- Name
  Node 8,                                 !- Air Distribution Unit Outlet Node Name
  AirTerminal:SingleDuct:ConstantVolume:NoReheat, !- Air Terminal Object Type
  air source heat pump terminal;          !- Air Terminal Name

ZoneHVAC:EquipmentList,
  conditioned space Equipment List,       !- Name
  SequentialLoad,                         !- Load Distribution Scheme
  ZoneHVAC:AirDistributionUnit,           !- Zone Equipment Object Type 1
  ADU air source heat pump terminal,      !- Zone Equipment Name 1
  1,                                      !- Zone Equipment Cooling Sequence 1
  1,                                      !- Zone Equipment Heating or No-Load Sequence 1
  Sequential Fraction Schedule 1,         !- Zone Equipment Sequential Cooling Fraction Schedule Name 1
  Sequential Fraction Schedule;           !- Zone Equipment Sequential Heating Fraction Schedule Name 1

Zone,
  crawlspace - vented,                    !- Name
  ,                                       !- Direction of Relative North {deg}
  0,                                      !- X Origin {m}
  0,                                      !- Y Origin {m}
  0,                                      !- Z Origin {m}
  ,                                       !- Type
  1,                                      !- Multiplier
  ,                                       !- Ceiling Height {m}
  192.328022052864,                       !- Volume {m3}
  ,                                       !- Floor Area {m2}
  ,                                       !- Zone Inside Convection Algorithm
  ,                                       !- Zone Outside Convection Algorithm
  Yes;                                    !- Part of Total Floor Area

Space,
  crawlspace - vented 1,                  !- Name
  crawlspace - vented,                    !- Zone Name
  ,                                       !- Ceiling Height {m}
  192.328022052864,                       !- Volume {m3}
  ;                                       !- Floor Area {m2}

BuildingSurface:Detailed,
  FoundationWall1,                        !- Name
  Wall,                                   !- Surface Type
  FoundationWall1 construction,           !- Construction Name
  crawlspace - vented,                    !- Zone Name
  crawlspace - vented 1,                  !- Space Name
  Foundation,                             !- Outside Boundary Condition
  Foundation Kiva 2,                      !- Outside Boundary Condition Object
  NoSun,                                  !- Sun Exposure
  NoWind,                                 !- Wind Exposure
  ,                                       !- View Factor to Ground
  ,                                       !- Number of Vertices
  3.95930788421052, -41.7606921157895, -0.9144, !- X,Y,Z Vertex 1 {m}
  3.95930788421052, -41.7606921157895, 0.3048, !- X,Y,Z Vertex 2 {m}
  -41.7606921157895, -41.7606921157895, 0.3048, !- X,Y,Z Vertex 3 {m}
  -41.7606921157895, -41.7606921157895, -0.9144; !- X,Y,Z Vertex 4 {m}

BuildingSurface:Detailed,
  RimJoist1,                              !- Name
  Wall,                                   !- Surface Type
  RimJoist1 construction,                 !- Construction Name
  crawlspace - vented,                    !- Zone Name
  crawlspace - vented 1,                  !- Space Name
  Outdoors,                               !- Outside Boundary Condition
  ,                                       !- Outside Boundary Condition Object
  SunExposed,                             !- Sun Exposure
  WindExposed,                            !- Wind Exposure
  ,                                       !- View Factor to Ground
  ,                                       !- Number of Vertices
  18.9396182842105, -41.7606921157895, 0.3048, !- X,Y,Z Vertex 1 {m}
  18.9396182842105, -41.7606921157895, 0.6096, !- X,Y,Z Vertex 2 {m}
  4.88833828421054, -41.7606921157895, 0.6096, !- X,Y,Z Vertex 3 {m}
  4.88833828421054, -41.7606921157895, 0.3048; !- X,Y,Z Vertex 4 {m}

BuildingSurface:Detailed,
  RimJoist2,                              !- Name
  Wall,                                   !- Surface Type
  RimJoist2 construction,                 !- Construction Name
  crawlspace - vented,                    !- Zone Name
  crawlspace - vented 1,                  !- Space Name
  Outdoors,                               !- Outside Boundary Condition
  ,                                       !- Outside Boundary Condition Object
  SunExposed,                             !- Sun Exposure
  WindExposed,                            !- Wind Exposure
  ,                                       !- View Factor to Ground
  ,                                       !- Number of Vertices
  -41.7606921157895, 33.9578121157895, 0.3048, !- X,Y,Z Vertex 1 {m}
  -41.7606921157895, 33.9578121157895, 0.6096, !- X,Y,Z Vertex 2 {m}
  -41.7606921157895, 41.7606921157895, 0.6096, !- X,Y,Z Vertex 3 {m}
  -41.7606921157895, 41.7606921157895, 0.3048; !- X,Y,Z Vertex 4 {m}

BuildingSurface:Detailed,
  RimJoist3,                              !- Name
  Wall,                                   !- Surface Type
  RimJoist3 construction,                 !- Construction Name
  crawlspace - vented,                    !- Zone Name
  crawlspace - vented 1,                  !- Space Name
  Outdoors,                               !- Outside Boundary Condition
  ,                                       !- Outside Boundary Condition Object
  SunExposed,                             !- Sun Exposure
  WindExposed,                            !- Wind Exposure
  ,                                       !- View Factor to Ground
  ,                                       !- Number of Vertices
  27.7094121157895, 41.7606921157895, 0.3048, !- X,Y,Z Vertex 1 {m}
  27.7094121157895, 41.7606921157895, 0.6096, !- X,Y,Z Vertex 2 {m}
  41.7606921157895, 41.7606921157895, 0.6096, !- X,Y,Z Vertex 3 {m}
  41.7606921157895, 41.7606921157895, 0.3048; !- X,Y,Z Vertex 4 {m}

BuildingSurface:Detailed,
  RimJoist4,                              !- Name
  Wall,                                   !- Surface Type
  RimJoist4 construction,                 !- Construction Name
  crawlspace - vented,                    !- Zone Name
  crawlspace - vented 1,                  !- Space Name
  Outdoors,                               !- Outside Boundary Condition
  ,                                       !- Outside Boundary Condition Object
  SunExposed,                             !- Sun Exposure
  WindExposed,                            !- Wind Exposure
  ,                                       !- View Factor to Ground
  ,                                       !- Number of Vertices
  41.7606921157895, -33.9578121157895, 0.3048, !- X,Y,Z Vertex 1 {m}
  41.7606921157895, -33.9578121157895, 0.6096, !- X,Y,Z Vertex 2 {m}
  41.7606921157895, -41.7606921157895, 0.6096, !- X,Y,Z Vertex 3 {m}
  41.7606921157895, -41.7606921157895, 0.3048; !- X,Y,Z Vertex 4 {m}

BuildingSurface:Detailed,
  Slab2,                                  !- Name
  Floor,                                  !- Surface Type
  Slab2 construction,                     !- Construction Name
  crawlspace - vented,                    !- Zone Name
  crawlspace - vented 1,                  !- Space Name
  Foundation,                             !- Outside Boundary Condition
  Foundation Kiva 2,                      !- Outside Boundary Condition Object
  NoSun,                                  !- Sun Exposure
  NoWind,                                 !- Wind Exposure
  ,                                       !- View Factor to Ground
  ,                                       !- Number of Vertices
  -6.27991571541551, -6.27991557007555, -0.9144, !- X,Y,Z Vertex 1 {m}
  -6.27991571541551, 6.27991557007555, -0.9144, !- X,Y,Z Vertex 2 {m}
  6.27991571541551, 6.27991557007555, -0.9144, !- X,Y,Z Vertex 3 {m}
  6.27991571541551, -6.27991557007555, -0.9144; !- X,Y,Z Vertex 4 {m}

SurfaceProperty:ExposedFoundationPerimeter,
  Slab2,                                  !- Surface Name
  TotalExposedPerimeter,                  !- Exposed Perimeter Calculation Method
  45.72,                                  !- Total Exposed Perimeter {m}
  ;                                       !- Exposed Perimeter Fraction {dimensionless}

BuildingSurface:Detailed,
  Surface 1 Reversed,                     !- Name
  Ceiling,                                !- Surface Type
  Floor1 construction Reversed,           !- Construction Name
  crawlspace - vented,                    !- Zone Name
  crawlspace - vented 1,                  !- Space Name
  Surface,                                !- Outside Boundary Condition
  Floor1,                                 !- Outside Boundary Condition Object
  NoSun,                                  !- Sun Exposure
  NoWind,                                 !- Wind Exposure
  ,                                       !- View Factor to Ground
  ,                                       !- Number of Vertices
  6.27991564274553, -6.27991564274553, 0.3048, !- X,Y,Z Vertex 1 {m}
  6.27991564274553, 6.27991564274553, 0.3048, !- X,Y,Z Vertex 2 {m}
  -6.27991564274553, 6.27991564274553, 0.3048, !- X,Y,Z Vertex 3 {m}
  -6.27991564274553, -6.27991564274553, 0.3048; !- X,Y,Z Vertex 4 {m}

OtherEquipment,
  air source heat pump airloop_0 RetCondToDZ, !- Name
  None,                                   !- Fuel Type
  crawlspace - vented 1,                  !- Zone or ZoneList or Space or SpaceList Name
  Always On Discrete,                     !- Schedule Name
  EquipmentLevel,                         !- Design Level Calculation Method
  0,                                      !- Design Level {W}
  ,                                       !- Power per Floor Area {W/m2}
  ,                                       !- Power per Person {W/person}
  0,                                      !- Fraction Latent
  0,                                      !- Fraction Radiant
  0,                                      !- Fraction Lost
  ,                                       !- Carbon Dioxide Generation Rate {m3/s-W}
  General;                                !- End-Use Subcategory

OtherEquipment,
  air source heat pump airloop_0 SupCondToDZ, !- Name
  None,                                   !- Fuel Type
  crawlspace - vented 1,                  !- Zone or ZoneList or Space or SpaceList Name
  Always On Discrete,                     !- Schedule Name
  EquipmentLevel,                         !- Design Level Calculation Method
  0,                                      !- Design Level {W}
  ,                                       !- Power per Floor Area {W/m2}
  ,                                       !- Power per Person {W/person}
  0,                                      !- Fraction Latent
  0,                                      !- Fraction Radiant
  0,                                      !- Fraction Lost
  ,                                       !- Carbon Dioxide Generation Rate {m3/s-W}
  General;                                !- End-Use Subcategory

OtherEquipment,
  air source heat pump airloop_0 SupLatLkToDZ, !- Name
  None,                                   !- Fuel Type
  crawlspace - vented 1,                  !- Zone or ZoneList or Space or SpaceList Name
  Always On Discrete,                     !- Schedule Name
  EquipmentLevel,                         !- Design Level Calculation Method
  0,                                      !- Design Level {W}
  ,                                       !- Power per Floor Area {W/m2}
  ,                                       !- Power per Person {W/person}
  1,                                      !- Fraction Latent
  0,                                      !- Fraction Radiant
  0,                                      !- Fraction Lost
  ,                                       !- Carbon Dioxide Generation Rate {m3/s-W}
  General;                                !- End-Use Subcategory

OtherEquipment,
  air source heat pump airloop_0 SupSensLkToDZ, !- Name
  None,                                   !- Fuel Type
  crawlspace - vented 1,                  !- Zone or ZoneList or Space or SpaceList Name
  Always On Discrete,                     !- Schedule Name
  EquipmentLevel,                         !- Design Level Calculation Method
  0,                                      !- Design Level {W}
  ,                                       !- Power per Floor Area {W/m2}
  ,                                       !- Power per Person {W/person}
  0,                                      !- Fraction Latent
  0,                                      !- Fraction Radiant
  0,                                      !- Fraction Lost
  ,                                       !- Carbon Dioxide Generation Rate {m3/s-W}
  General;                                !- End-Use Subcategory

ZoneInfiltration:DesignFlowRate,
  crawlspace_vented 1 duct leakage imbalance infil flow, !- Name
  crawlspace - vented 1,                  !- Zone or ZoneList or Space or SpaceList Name
  Always On Discrete,                     !- Schedule Name
  Flow/Zone,                              !- Design Flow Rate Calculation Method
  0,                                      !- Design Flow Rate {m3/s}
  ,                                       !- Flow Rate per Floor Area {m3/s-m2}
  ,                                       !- Flow Rate per Exterior Surface Area {m3/s-m2}
  ,                                       !- Air Changes per Hour {1/hr}
  ,                                       !- Constant Term Coefficient
  ,                                       !- Temperature Term Coefficient
  ,                                       !- Velocity Term Coefficient
  ;                                       !- Velocity Squared Term Coefficient

ZoneInfiltration:DesignFlowRate,
  infil crawlspace - vented 1,            !- Name
  crawlspace - vented 1,                  !- Zone or ZoneList or Space or SpaceList Name
  Always On Discrete,                     !- Schedule Name
  AirChanges/Hour,                        !- Design Flow Rate Calculation Method
  ,                                       !- Design Flow Rate {m3/s}
  ,                                       !- Flow Rate per Floor Area {m3/s-m2}
  ,                                       !- Flow Rate per Exterior Surface Area {m3/s-m2}
  2.60129669588333,                       !- Air Changes per Hour {1/hr}
  1,                                      !- Constant Term Coefficient
  0,                                      !- Temperature Term Coefficient
  0,                                      !- Velocity Term Coefficient
  0;                                      !- Velocity Squared Term Coefficient

ZoneMixing,
  air source heat pump airloop_0 ZoneMixCondToDZ mix, !- Name
  crawlspace - vented,                    !- Zone or Space Name
  Always On Continuous,                   !- Schedule Name
  Flow/Zone,                              !- Design Flow Rate Calculation Method
  0,                                      !- Design Flow Rate {m3/s}
  ,                                       !- Flow Rate per Floor Area {m3/s-m2}
  ,                                       !- Flow Rate per Person {m3/s-person}
  ,                                       !- Air Changes per Hour {1/hr}
  conditioned space;                      !- Source Zone or Space Name

Zone,
  garage,                                 !- Name
  ,                                       !- Direction of Relative North {deg}
  0,                                      !- X Origin {m}
  0,                                      !- Y Origin {m}
  0,                                      !- Z Origin {m}
  ,                                       !- Type
  1,                                      !- Multiplier
  ,                                       !- Ceiling Height {m}
  130.484029095936,                       !- Volume {m3}
  ,                                       !- Floor Area {m2}
  ,                                       !- Zone Inside Convection Algorithm
  ,                                       !- Zone Outside Convection Algorithm
  Yes;                                    !- Part of Total Floor Area

Space,
  garage 1,                               !- Name
  garage,                                 !- Zone Name
  ,                                       !- Ceiling Height {m}
  130.484029095936,                       !- Volume {m3}
  ;                                       !- Floor Area {m2}

BuildingSurface:Detailed,
  Roof1,                                  !- Name
  Roof,                                   !- Surface Type
  Roof1 construction,                     !- Construction Name
  garage,                                 !- Zone Name
  garage 1,                               !- Space Name
  Outdoors,                               !- Outside Boundary Condition
  ,                                       !- Outside Boundary Condition Object
  SunExposed,                             !- Sun Exposure
  WindExposed,                            !- Wind Exposure
  ,                                       !- View Factor to Ground
  ,                                       !- Number of Vertices
  -3.6576, 3.6576, 2.7432,                !- X,Y,Z Vertex 1 {m}
  -3.6576, -3.6576, 2.7432,               !- X,Y,Z Vertex 2 {m}
  3.6576, -3.6576, 2.7432,                !- X,Y,Z Vertex 3 {m}
  3.6576, 3.6576, 2.7432;                 !- X,Y,Z Vertex 4 {m}

BuildingSurface:Detailed,
  Slab1,                                  !- Name
  Floor,                                  !- Surface Type
  Slab1 construction,                     !- Construction Name
  garage,                                 !- Zone Name
  garage 1,                               !- Space Name
  Foundation,                             !- Outside Boundary Condition
  Foundation Kiva 1,                      !- Outside Boundary Condition Object
  NoSun,                                  !- Sun Exposure
  NoWind,                                 !- Wind Exposure
  ,                                       !- View Factor to Ground
  ,                                       !- Number of Vertices
  -3.6576, -3.6576, 0,                    !- X,Y,Z Vertex 1 {m}
  -3.6576, 3.6576, 0,                     !- X,Y,Z Vertex 2 {m}
  3.6576, 3.6576, 0,                      !- X,Y,Z Vertex 3 {m}
  3.6576, -3.6576, 0;                     !- X,Y,Z Vertex 4 {m}

SurfaceProperty:ExposedFoundationPerimeter,
  Slab1,                                  !- Surface Name
  TotalExposedPerimeter,                  !- Exposed Perimeter Calculation Method
  18.288,                                 !- Total Exposed Perimeter {m}
  ;                                       !- Exposed Perimeter Fraction {dimensionless}

BuildingSurface:Detailed,
  Wall1,                                  !- Name
  Wall,                                   !- Surface Type
  Wall1 construction,                     !- Construction Name
  garage,                                 !- Zone Name
  garage 1,                               !- Space Name
  Outdoors,                               !- Outside Boundary Condition
  ,                                       !- Outside Boundary Condition Object
  SunExposed,                             !- Sun Exposure
  WindExposed,                            !- Wind Exposure
  ,                                       !- View Factor to Ground
  ,                                       !- Number of Vertices
  -41.7606921157895, 23.3272263157895, 0.3048, !- X,Y,Z Vertex 1 {m}
  -41.7606921157895, 23.3272263157895, 2.7432, !- X,Y,Z Vertex 2 {m}
  -41.7606921157895, 30.6424263157895, 2.7432, !- X,Y,Z Vertex 3 {m}
  -41.7606921157895, 30.6424263157895, 0.3048; !- X,Y,Z Vertex 4 {m}

BuildingSurface:Detailed,
  Wall2,                                  !- Name
  Wall,                                   !- Surface Type
  Wall2 construction,                     !- Construction Name
  garage,                                 !- Zone Name
  garage 1,                               !- Space Name
  Outdoors,                               !- Outside Boundary Condition
  ,                                       !- Outside Boundary Condition Object
  SunExposed,                             !- Sun Exposure
  WindExposed,                            !- Wind Exposure
  ,                                       !- View Factor to Ground
  ,                                       !- Number of Vertices
  14.3802837696567, 41.7606921157895, 0.3048, !- X,Y,Z Vertex 1 {m}
  14.3802837696567, 41.7606921157895, 2.7432, !- X,Y,Z Vertex 2 {m}
  21.6954837696567, 41.7606921157895, 2.7432, !- X,Y,Z Vertex 3 {m}
  21.6954837696567, 41.7606921157895, 0.3048; !- X,Y,Z Vertex 4 {m}

BuildingSurface:Detailed,
  Wall5 Reversed,                         !- Name
  Wall,                                   !- Surface Type
  Wall5 construction Reversed,            !- Construction Name
  garage,                                 !- Zone Name
  garage 1,                               !- Space Name
  Surface,                                !- Outside Boundary Condition
  Wall5,                                  !- Outside Boundary Condition Object
  NoSun,                                  !- Sun Exposure
  NoWind,                                 !- Wind Exposure
  ,                                       !- View Factor to Ground
  ,                                       !- Number of Vertices
  3.6576, 0, 0.3048,                      !- X,Y,Z Vertex 1 {m}
  3.6576, 0, 2.7432,                      !- X,Y,Z Vertex 2 {m}
  -3.6576, 0, 2.7432,                     !- X,Y,Z Vertex 3 {m}
  -3.6576, 0, 0.3048;                     !- X,Y,Z Vertex 4 {m}

BuildingSurface:Detailed,
  Wall6 Reversed,                         !- Name
  Wall,                                   !- Surface Type
  Wall6 construction Reversed,            !- Construction Name
  garage,                                 !- Zone Name
  garage 1,                               !- Space Name
  Surface,                                !- Outside Boundary Condition
  Wall6,                                  !- Outside Boundary Condition Object
  NoSun,                                  !- Sun Exposure
  NoWind,                                 !- Wind Exposure
  ,                                       !- View Factor to Ground
  ,                                       !- Number of Vertices
  -3.35945109942102e-16, 1.8288, 0.3048,  !- X,Y,Z Vertex 1 {m}
  -3.35945109942102e-16, 1.8288, 2.7432,  !- X,Y,Z Vertex 2 {m}
  3.35945109942102e-16, -1.8288, 2.7432,  !- X,Y,Z Vertex 3 {m}
  3.35945109942102e-16, -1.8288, 0.3048;  !- X,Y,Z Vertex 4 {m}

BuildingSurface:Detailed,
  Wall9,                                  !- Name
  Wall,                                   !- Surface Type
  Wall9 construction,                     !- Construction Name
  garage,                                 !- Zone Name
  garage 1,                               !- Space Name
  Outdoors,                               !- Outside Boundary Condition
  ,                                       !- Outside Boundary Condition Object
  SunExposed,                             !- Sun Exposure
  WindExposed,                            !- Wind Exposure
  ,                                       !- View Factor to Ground
  ,                                       !- Number of Vertices
  41.7606921157895, -16.4793609157895, 0.3048, !- X,Y,Z Vertex 1 {m}
  41.7606921157895, -16.4793609157895, 2.7432, !- X,Y,Z Vertex 2 {m}
  41.7606921157895, -20.1369609157895, 2.7432, !- X,Y,Z Vertex 3 {m}
  41.7606921157895, -20.1369609157895, 0.3048; !- X,Y,Z Vertex 4 {m}

InternalMass,
  furniture mass garage 1,                !- Name
  furniture construction garage 1,        !- Construction Name
  garage,                                 !- Zone or ZoneList Name
  garage 1,                               !- Space or SpaceList Name
  5.35122;                                !- Surface Area {m2}

Lights,
  garage lighting,                        !- Name
  garage 1,                               !- Zone or ZoneList or Space or SpaceList Name
  lighting_garage,                        !- Schedule Name
  LightingLevel,                          !- Design Level Calculation Method
  48.3308733522933,                       !- Lighting Level {W}
  ,                                       !- Watts per Floor Area {W/m2}
  ,                                       !- Watts per Person {W/person}
  0,                                      !- Return Air Fraction
  0.6,                                    !- Fraction Radiant
  0.2,                                    !- Fraction Visible
  1,                                      !- Fraction Replaceable
  garage lighting;                        !- End-Use Subcategory

Schedule:File,
  lighting_garage,                        !- Name
  Fractional,                             !- Schedule Type Limits Name
  in.schedules.csv,                       !- File Name
  5,                                      !- Column Number
  1,                                      !- Rows to Skip at Top
  8760,                                   !- Number of Hours of Data
  Comma,                                  !- Column Separator
  Yes,                                    !- Interpolate to Timestep
  15,                                     !- Minutes per Item
  Yes;                                    !- Adjust Schedule for Daylight Savings

ElectricEquipment,
  freezer,                                !- Name
  garage 1,                               !- Zone or ZoneList or Space or SpaceList Name
  freezer schedule,                       !- Schedule Name
  EquipmentLevel,                         !- Design Level Calculation Method
  194.914360779534,                       !- Design Level {W}
  ,                                       !- Watts per Floor Area {W/m2}
  ,                                       !- Watts per Person {W/person}
  0,                                      !- Fraction Latent
  0.6,                                    !- Fraction Radiant
  0,                                      !- Fraction Lost
  freezer;                                !- End-Use Subcategory

Schedule:Day:Interval,
  freezer schedule day,                   !- Name
  Fractional,                             !- Schedule Type Limits Name
  No,                                     !- Interpolate to Timestep
  01:00,                                  !- Time 1 {hh:mm}
  0.610948905109489,                      !- Value Until Time 1
  02:00,                                  !- Time 2 {hh:mm}
  0.595675182481752,                      !- Value Until Time 2
  03:00,                                  !- Time 3 {hh:mm}
  0.580401459854015,                      !- Value Until Time 3
  04:00,                                  !- Time 4 {hh:mm}
  0.565127737226277,                      !- Value Until Time 4
  06:00,                                  !- Time 5 {hh:mm}
  0.54985401459854,                       !- Value Until Time 5
  07:00,                                  !- Time 6 {hh:mm}
  0.580401459854015,                      !- Value Until Time 6
  08:00,                                  !- Time 7 {hh:mm}
  0.610948905109489,                      !- Value Until Time 7
  10:00,                                  !- Time 8 {hh:mm}
  0.626222627737226,                      !- Value Until Time 8
  12:00,                                  !- Time 9 {hh:mm}
  0.610948905109489,                      !- Value Until Time 9
  15:00,                                  !- Time 10 {hh:mm}
  0.641496350364963,                      !- Value Until Time 10
  16:00,                                  !- Time 11 {hh:mm}
  0.626222627737226,                      !- Value Until Time 11
  17:00,                                  !- Time 12 {hh:mm}
  0.672043795620438,                      !- Value Until Time 12
  18:00,                                  !- Time 13 {hh:mm}
  0.733138686131387,                      !- Value Until Time 13
  19:00,                                  !- Time 14 {hh:mm}
  0.763686131386861,                      !- Value Until Time 14
  20:00,                                  !- Time 15 {hh:mm}
  0.733138686131387,                      !- Value Until Time 15
  21:00,                                  !- Time 16 {hh:mm}
  0.71786496350365,                       !- Value Until Time 16
  22:00,                                  !- Time 17 {hh:mm}
  0.702591240875912,                      !- Value Until Time 17
  23:00,                                  !- Time 18 {hh:mm}
  0.672043795620438,                      !- Value Until Time 18
  24:00,                                  !- Time 19 {hh:mm}
  0.626222627737226;                      !- Value Until Time 19

Schedule:Day:Interval,
  freezer schedule day 1,                 !- Name
  Fractional,                             !- Schedule Type Limits Name
  No,                                     !- Interpolate to Timestep
  01:00,                                  !- Time 1 {hh:mm}
  0.60948905109489,                       !- Value Until Time 1
  02:00,                                  !- Time 2 {hh:mm}
  0.594251824817518,                      !- Value Until Time 2
  03:00,                                  !- Time 3 {hh:mm}
  0.579014598540146,                      !- Value Until Time 3
  04:00,                                  !- Time 4 {hh:mm}
  0.563777372262774,                      !- Value Until Time 4
  06:00,                                  !- Time 5 {hh:mm}
  0.548540145985401,                      !- Value Until Time 5
  07:00,                                  !- Time 6 {hh:mm}
  0.579014598540146,                      !- Value Until Time 6
  08:00,                                  !- Time 7 {hh:mm}
  0.60948905109489,                       !- Value Until Time 7
  10:00,                                  !- Time 8 {hh:mm}
  0.624726277372263,                      !- Value Until Time 8
  12:00,                                  !- Time 9 {hh:mm}
  0.60948905109489,                       !- Value Until Time 9
  15:00,                                  !- Time 10 {hh:mm}
  0.639963503649635,                      !- Value Until Time 10
  16:00,                                  !- Time 11 {hh:mm}
  0.624726277372263,                      !- Value Until Time 11
  17:00,                                  !- Time 12 {hh:mm}
  0.670437956204379,                      !- Value Until Time 12
  18:00,                                  !- Time 13 {hh:mm}
  0.731386861313868,                      !- Value Until Time 13
  19:00,                                  !- Time 14 {hh:mm}
  0.761861313868613,                      !- Value Until Time 14
  20:00,                                  !- Time 15 {hh:mm}
  0.731386861313868,                      !- Value Until Time 15
  21:00,                                  !- Time 16 {hh:mm}
  0.716149635036496,                      !- Value Until Time 16
  22:00,                                  !- Time 17 {hh:mm}
  0.700912408759124,                      !- Value Until Time 17
  23:00,                                  !- Time 18 {hh:mm}
  0.670437956204379,                      !- Value Until Time 18
  24:00,                                  !- Time 19 {hh:mm}
  0.624726277372263;                      !- Value Until Time 19

Schedule:Week:Daily,
  freezer schedule Week Rule - Jan1-Jan27, !- Name
  freezer schedule day,                   !- Sunday Schedule:Day Name
  freezer schedule day,                   !- Monday Schedule:Day Name
  freezer schedule day,                   !- Tuesday Schedule:Day Name
  freezer schedule day,                   !- Wednesday Schedule:Day Name
  freezer schedule day,                   !- Thursday Schedule:Day Name
  freezer schedule day,                   !- Friday Schedule:Day Name
  freezer schedule day,                   !- Saturday Schedule:Day Name
  freezer schedule default day,           !- Holiday Schedule:Day Name
  freezer schedule default day,           !- SummerDesignDay Schedule:Day Name
  freezer schedule default day,           !- WinterDesignDay Schedule:Day Name
  freezer schedule default day,           !- CustomDay1 Schedule:Day Name
  freezer schedule default day;           !- CustomDay2 Schedule:Day Name

Schedule:Week:Daily,
  freezer schedule Week Rule - Jan28-Feb3, !- Name
  freezer schedule day,                   !- Sunday Schedule:Day Name
  freezer schedule day,                   !- Monday Schedule:Day Name
  freezer schedule day,                   !- Tuesday Schedule:Day Name
  freezer schedule day,                   !- Wednesday Schedule:Day Name
  freezer schedule day 1,                 !- Thursday Schedule:Day Name
  freezer schedule day 1,                 !- Friday Schedule:Day Name
  freezer schedule day 1,                 !- Saturday Schedule:Day Name
  freezer schedule default day,           !- Holiday Schedule:Day Name
  freezer schedule default day,           !- SummerDesignDay Schedule:Day Name
  freezer schedule default day,           !- WinterDesignDay Schedule:Day Name
  freezer schedule default day,           !- CustomDay1 Schedule:Day Name
  freezer schedule default day;           !- CustomDay2 Schedule:Day Name

Schedule:Day:Interval,
  freezer schedule day 2,                 !- Name
  Fractional,                             !- Schedule Type Limits Name
  No,                                     !- Interpolate to Timestep
  01:00,                                  !- Time 1 {hh:mm}
  0.791240875912409,                      !- Value Until Time 1
  02:00,                                  !- Time 2 {hh:mm}
  0.771459854014598,                      !- Value Until Time 2
  03:00,                                  !- Time 3 {hh:mm}
  0.751678832116789,                      !- Value Until Time 3
  04:00,                                  !- Time 4 {hh:mm}
  0.731897810218978,                      !- Value Until Time 4
  06:00,                                  !- Time 5 {hh:mm}
  0.712116788321168,                      !- Value Until Time 5
  07:00,                                  !- Time 6 {hh:mm}
  0.751678832116789,                      !- Value Until Time 6
  08:00,                                  !- Time 7 {hh:mm}
  0.791240875912409,                      !- Value Until Time 7
  10:00,                                  !- Time 8 {hh:mm}
  0.811021897810219,                      !- Value Until Time 8
  12:00,                                  !- Time 9 {hh:mm}
  0.791240875912409,                      !- Value Until Time 9
  15:00,                                  !- Time 10 {hh:mm}
  0.830802919708029,                      !- Value Until Time 10
  16:00,                                  !- Time 11 {hh:mm}
  0.811021897810219,                      !- Value Until Time 11
  17:00,                                  !- Time 12 {hh:mm}
  0.87036496350365,                       !- Value Until Time 12
  18:00,                                  !- Time 13 {hh:mm}
  0.949489051094891,                      !- Value Until Time 13
  19:00,                                  !- Time 14 {hh:mm}
  0.989051094890511,                      !- Value Until Time 14
  20:00,                                  !- Time 15 {hh:mm}
  0.949489051094891,                      !- Value Until Time 15
  21:00,                                  !- Time 16 {hh:mm}
  0.92970802919708,                       !- Value Until Time 16
  22:00,                                  !- Time 17 {hh:mm}
  0.90992700729927,                       !- Value Until Time 17
  23:00,                                  !- Time 18 {hh:mm}
  0.87036496350365,                       !- Value Until Time 18
  24:00,                                  !- Time 19 {hh:mm}
  0.811021897810219;                      !- Value Until Time 19

Schedule:Week:Daily,
  freezer schedule Week Rule - Feb4-Feb24, !- Name
  freezer schedule day 1,                 !- Sunday Schedule:Day Name
  freezer schedule day 1,                 !- Monday Schedule:Day Name
  freezer schedule day 1,                 !- Tuesday Schedule:Day Name
  freezer schedule day 1,                 !- Wednesday Schedule:Day Name
  freezer schedule day 1,                 !- Thursday Schedule:Day Name
  freezer schedule day 1,                 !- Friday Schedule:Day Name
  freezer schedule day 1,                 !- Saturday Schedule:Day Name
  freezer schedule default day,           !- Holiday Schedule:Day Name
  freezer schedule default day,           !- SummerDesignDay Schedule:Day Name
  freezer schedule default day,           !- WinterDesignDay Schedule:Day Name
  freezer schedule default day,           !- CustomDay1 Schedule:Day Name
  freezer schedule default day;           !- CustomDay2 Schedule:Day Name

Schedule:Week:Daily,
  freezer schedule Week Rule - Feb25-Mar3, !- Name
  freezer schedule day 1,                 !- Sunday Schedule:Day Name
  freezer schedule day 1,                 !- Monday Schedule:Day Name
  freezer schedule day 1,                 !- Tuesday Schedule:Day Name
  freezer schedule day 1,                 !- Wednesday Schedule:Day Name
  freezer schedule day 2,                 !- Thursday Schedule:Day Name
  freezer schedule day 2,                 !- Friday Schedule:Day Name
  freezer schedule day 2,                 !- Saturday Schedule:Day Name
  freezer schedule default day,           !- Holiday Schedule:Day Name
  freezer schedule default day,           !- SummerDesignDay Schedule:Day Name
  freezer schedule default day,           !- WinterDesignDay Schedule:Day Name
  freezer schedule default day,           !- CustomDay1 Schedule:Day Name
  freezer schedule default day;           !- CustomDay2 Schedule:Day Name

Schedule:Day:Interval,
  freezer schedule day 3,                 !- Name
  Fractional,                             !- Schedule Type Limits Name
  No,                                     !- Interpolate to Timestep
  01:00,                                  !- Time 1 {hh:mm}
  0.8,                                    !- Value Until Time 1
  02:00,                                  !- Time 2 {hh:mm}
  0.78,                                   !- Value Until Time 2
  03:00,                                  !- Time 3 {hh:mm}
  0.76,                                   !- Value Until Time 3
  04:00,                                  !- Time 4 {hh:mm}
  0.74,                                   !- Value Until Time 4
  06:00,                                  !- Time 5 {hh:mm}
  0.72,                                   !- Value Until Time 5
  07:00,                                  !- Time 6 {hh:mm}
  0.76,                                   !- Value Until Time 6
  08:00,                                  !- Time 7 {hh:mm}
  0.8,                                    !- Value Until Time 7
  10:00,                                  !- Time 8 {hh:mm}
  0.82,                                   !- Value Until Time 8
  12:00,                                  !- Time 9 {hh:mm}
  0.8,                                    !- Value Until Time 9
  15:00,                                  !- Time 10 {hh:mm}
  0.84,                                   !- Value Until Time 10
  16:00,                                  !- Time 11 {hh:mm}
  0.82,                                   !- Value Until Time 11
  17:00,                                  !- Time 12 {hh:mm}
  0.88,                                   !- Value Until Time 12
  18:00,                                  !- Time 13 {hh:mm}
  0.96,                                   !- Value Until Time 13
  19:00,                                  !- Time 14 {hh:mm}
  1,                                      !- Value Until Time 14
  20:00,                                  !- Time 15 {hh:mm}
  0.96,                                   !- Value Until Time 15
  21:00,                                  !- Time 16 {hh:mm}
  0.94,                                   !- Value Until Time 16
  22:00,                                  !- Time 17 {hh:mm}
  0.92,                                   !- Value Until Time 17
  23:00,                                  !- Time 18 {hh:mm}
  0.88,                                   !- Value Until Time 18
  24:00,                                  !- Time 19 {hh:mm}
  0.82;                                   !- Value Until Time 19

Schedule:Week:Daily,
  freezer schedule Week Rule - Mar4-May26, !- Name
  freezer schedule day 2,                 !- Sunday Schedule:Day Name
  freezer schedule day 2,                 !- Monday Schedule:Day Name
  freezer schedule day 2,                 !- Tuesday Schedule:Day Name
  freezer schedule day 2,                 !- Wednesday Schedule:Day Name
  freezer schedule day 2,                 !- Thursday Schedule:Day Name
  freezer schedule day 2,                 !- Friday Schedule:Day Name
  freezer schedule day 2,                 !- Saturday Schedule:Day Name
  freezer schedule default day,           !- Holiday Schedule:Day Name
  freezer schedule default day,           !- SummerDesignDay Schedule:Day Name
  freezer schedule default day,           !- WinterDesignDay Schedule:Day Name
  freezer schedule default day,           !- CustomDay1 Schedule:Day Name
  freezer schedule default day;           !- CustomDay2 Schedule:Day Name

Schedule:Week:Daily,
  freezer schedule Week Rule - May27-Jun2, !- Name
  freezer schedule day 2,                 !- Sunday Schedule:Day Name
  freezer schedule day 2,                 !- Monday Schedule:Day Name
  freezer schedule day 2,                 !- Tuesday Schedule:Day Name
  freezer schedule day 2,                 !- Wednesday Schedule:Day Name
  freezer schedule day 2,                 !- Thursday Schedule:Day Name
  freezer schedule day 3,                 !- Friday Schedule:Day Name
  freezer schedule day 3,                 !- Saturday Schedule:Day Name
  freezer schedule default day,           !- Holiday Schedule:Day Name
  freezer schedule default day,           !- SummerDesignDay Schedule:Day Name
  freezer schedule default day,           !- WinterDesignDay Schedule:Day Name
  freezer schedule default day,           !- CustomDay1 Schedule:Day Name
  freezer schedule default day;           !- CustomDay2 Schedule:Day Name

Schedule:Day:Interval,
  freezer schedule day 4,                 !- Name
  Fractional,                             !- Schedule Type Limits Name
  No,                                     !- Interpolate to Timestep
  01:00,                                  !- Time 1 {hh:mm}
  0.67956204379562,                       !- Value Until Time 1
  02:00,                                  !- Time 2 {hh:mm}
  0.66257299270073,                       !- Value Until Time 2
  03:00,                                  !- Time 3 {hh:mm}
  0.645583941605839,                      !- Value Until Time 3
  04:00,                                  !- Time 4 {hh:mm}
  0.628594890510949,                      !- Value Until Time 4
  06:00,                                  !- Time 5 {hh:mm}
  0.611605839416058,                      !- Value Until Time 5
  07:00,                                  !- Time 6 {hh:mm}
  0.645583941605839,                      !- Value Until Time 6
  08:00,                                  !- Time 7 {hh:mm}
  0.67956204379562,                       !- Value Until Time 7
  10:00,                                  !- Time 8 {hh:mm}
  0.696551094890511,                      !- Value Until Time 8
  12:00,                                  !- Time 9 {hh:mm}
  0.67956204379562,                       !- Value Until Time 9
  15:00,                                  !- Time 10 {hh:mm}
  0.713540145985401,                      !- Value Until Time 10
  16:00,                                  !- Time 11 {hh:mm}
  0.696551094890511,                      !- Value Until Time 11
  17:00,                                  !- Time 12 {hh:mm}
  0.747518248175182,                      !- Value Until Time 12
  18:00,                                  !- Time 13 {hh:mm}
  0.815474452554744,                      !- Value Until Time 13
  19:00,                                  !- Time 14 {hh:mm}
  0.849452554744526,                      !- Value Until Time 14
  20:00,                                  !- Time 15 {hh:mm}
  0.815474452554744,                      !- Value Until Time 15
  21:00,                                  !- Time 16 {hh:mm}
  0.798485401459854,                      !- Value Until Time 16
  22:00,                                  !- Time 17 {hh:mm}
  0.781496350364963,                      !- Value Until Time 17
  23:00,                                  !- Time 18 {hh:mm}
  0.747518248175182,                      !- Value Until Time 18
  24:00,                                  !- Time 19 {hh:mm}
  0.696551094890511;                      !- Value Until Time 19

Schedule:Week:Daily,
  freezer schedule Week Rule - Jun3-Sep29, !- Name
  freezer schedule day 3,                 !- Sunday Schedule:Day Name
  freezer schedule day 3,                 !- Monday Schedule:Day Name
  freezer schedule day 3,                 !- Tuesday Schedule:Day Name
  freezer schedule day 3,                 !- Wednesday Schedule:Day Name
  freezer schedule day 3,                 !- Thursday Schedule:Day Name
  freezer schedule day 3,                 !- Friday Schedule:Day Name
  freezer schedule day 3,                 !- Saturday Schedule:Day Name
  freezer schedule default day,           !- Holiday Schedule:Day Name
  freezer schedule default day,           !- SummerDesignDay Schedule:Day Name
  freezer schedule default day,           !- WinterDesignDay Schedule:Day Name
  freezer schedule default day,           !- CustomDay1 Schedule:Day Name
  freezer schedule default day;           !- CustomDay2 Schedule:Day Name

Schedule:Week:Daily,
  freezer schedule Week Rule - Sep30-Oct6, !- Name
  freezer schedule day 3,                 !- Sunday Schedule:Day Name
  freezer schedule day 4,                 !- Monday Schedule:Day Name
  freezer schedule day 4,                 !- Tuesday Schedule:Day Name
  freezer schedule day 4,                 !- Wednesday Schedule:Day Name
  freezer schedule day 4,                 !- Thursday Schedule:Day Name
  freezer schedule day 4,                 !- Friday Schedule:Day Name
  freezer schedule day 4,                 !- Saturday Schedule:Day Name
  freezer schedule default day,           !- Holiday Schedule:Day Name
  freezer schedule default day,           !- SummerDesignDay Schedule:Day Name
  freezer schedule default day,           !- WinterDesignDay Schedule:Day Name
  freezer schedule default day,           !- CustomDay1 Schedule:Day Name
  freezer schedule default day;           !- CustomDay2 Schedule:Day Name

Schedule:Day:Interval,
  freezer schedule day 5,                 !- Name
  Fractional,                             !- Schedule Type Limits Name
  No,                                     !- Interpolate to Timestep
  01:00,                                  !- Time 1 {hh:mm}
  0.675182481751825,                      !- Value Until Time 1
  02:00,                                  !- Time 2 {hh:mm}
  0.658302919708029,                      !- Value Until Time 2
  03:00,                                  !- Time 3 {hh:mm}
  0.641423357664234,                      !- Value Until Time 3
  04:00,                                  !- Time 4 {hh:mm}
  0.624543795620438,                      !- Value Until Time 4
  06:00,                                  !- Time 5 {hh:mm}
  0.607664233576642,                      !- Value Until Time 5
  07:00,                                  !- Time 6 {hh:mm}
  0.641423357664234,                      !- Value Until Time 6
  08:00,                                  !- Time 7 {hh:mm}
  0.675182481751825,                      !- Value Until Time 7
  10:00,                                  !- Time 8 {hh:mm}
  0.69206204379562,                       !- Value Until Time 8
  12:00,                                  !- Time 9 {hh:mm}
  0.675182481751825,                      !- Value Until Time 9
  15:00,                                  !- Time 10 {hh:mm}
  0.708941605839416,                      !- Value Until Time 10
  16:00,                                  !- Time 11 {hh:mm}
  0.69206204379562,                       !- Value Until Time 11
  17:00,                                  !- Time 12 {hh:mm}
  0.742700729927007,                      !- Value Until Time 12
  18:00,                                  !- Time 13 {hh:mm}
  0.81021897810219,                       !- Value Until Time 13
  19:00,                                  !- Time 14 {hh:mm}
  0.843978102189781,                      !- Value Until Time 14
  20:00,                                  !- Time 15 {hh:mm}
  0.81021897810219,                       !- Value Until Time 15
  21:00,                                  !- Time 16 {hh:mm}
  0.793339416058394,                      !- Value Until Time 16
  22:00,                                  !- Time 17 {hh:mm}
  0.776459854014598,                      !- Value Until Time 17
  23:00,                                  !- Time 18 {hh:mm}
  0.742700729927007,                      !- Value Until Time 18
  24:00,                                  !- Time 19 {hh:mm}
  0.69206204379562;                       !- Value Until Time 19

Schedule:Week:Daily,
  freezer schedule Week Rule - Oct7-Oct27, !- Name
  freezer schedule day 4,                 !- Sunday Schedule:Day Name
  freezer schedule day 4,                 !- Monday Schedule:Day Name
  freezer schedule day 4,                 !- Tuesday Schedule:Day Name
  freezer schedule day 4,                 !- Wednesday Schedule:Day Name
  freezer schedule day 4,                 !- Thursday Schedule:Day Name
  freezer schedule day 4,                 !- Friday Schedule:Day Name
  freezer schedule day 4,                 !- Saturday Schedule:Day Name
  freezer schedule default day,           !- Holiday Schedule:Day Name
  freezer schedule default day,           !- SummerDesignDay Schedule:Day Name
  freezer schedule default day,           !- WinterDesignDay Schedule:Day Name
  freezer schedule default day,           !- CustomDay1 Schedule:Day Name
  freezer schedule default day;           !- CustomDay2 Schedule:Day Name

Schedule:Week:Daily,
  freezer schedule Week Rule - Oct28-Nov3, !- Name
  freezer schedule day 4,                 !- Sunday Schedule:Day Name
  freezer schedule day 4,                 !- Monday Schedule:Day Name
  freezer schedule day 4,                 !- Tuesday Schedule:Day Name
  freezer schedule day 4,                 !- Wednesday Schedule:Day Name
  freezer schedule day 5,                 !- Thursday Schedule:Day Name
  freezer schedule day 5,                 !- Friday Schedule:Day Name
  freezer schedule day 5,                 !- Saturday Schedule:Day Name
  freezer schedule default day,           !- Holiday Schedule:Day Name
  freezer schedule default day,           !- SummerDesignDay Schedule:Day Name
  freezer schedule default day,           !- WinterDesignDay Schedule:Day Name
  freezer schedule default day,           !- CustomDay1 Schedule:Day Name
  freezer schedule default day;           !- CustomDay2 Schedule:Day Name

Schedule:Day:Interval,
  freezer schedule day 6,                 !- Name
  Fractional,                             !- Schedule Type Limits Name
  No,                                     !- Interpolate to Timestep
  01:00,                                  !- Time 1 {hh:mm}
  0.610948905109489,                      !- Value Until Time 1
  02:00,                                  !- Time 2 {hh:mm}
  0.595675182481752,                      !- Value Until Time 2
  03:00,                                  !- Time 3 {hh:mm}
  0.580401459854015,                      !- Value Until Time 3
  04:00,                                  !- Time 4 {hh:mm}
  0.565127737226277,                      !- Value Until Time 4
  06:00,                                  !- Time 5 {hh:mm}
  0.54985401459854,                       !- Value Until Time 5
  07:00,                                  !- Time 6 {hh:mm}
  0.580401459854015,                      !- Value Until Time 6
  08:00,                                  !- Time 7 {hh:mm}
  0.610948905109489,                      !- Value Until Time 7
  10:00,                                  !- Time 8 {hh:mm}
  0.626222627737226,                      !- Value Until Time 8
  12:00,                                  !- Time 9 {hh:mm}
  0.610948905109489,                      !- Value Until Time 9
  15:00,                                  !- Time 10 {hh:mm}
  0.641496350364963,                      !- Value Until Time 10
  16:00,                                  !- Time 11 {hh:mm}
  0.626222627737226,                      !- Value Until Time 11
  17:00,                                  !- Time 12 {hh:mm}
  0.672043795620438,                      !- Value Until Time 12
  18:00,                                  !- Time 13 {hh:mm}
  0.733138686131387,                      !- Value Until Time 13
  19:00,                                  !- Time 14 {hh:mm}
  0.763686131386861,                      !- Value Until Time 14
  20:00,                                  !- Time 15 {hh:mm}
  0.733138686131387,                      !- Value Until Time 15
  21:00,                                  !- Time 16 {hh:mm}
  0.71786496350365,                       !- Value Until Time 16
  22:00,                                  !- Time 17 {hh:mm}
  0.702591240875912,                      !- Value Until Time 17
  23:00,                                  !- Time 18 {hh:mm}
  0.672043795620438,                      !- Value Until Time 18
  24:00,                                  !- Time 19 {hh:mm}
  0.626222627737226;                      !- Value Until Time 19

Schedule:Week:Daily,
  freezer schedule Week Rule - Nov4-Nov24, !- Name
  freezer schedule day 5,                 !- Sunday Schedule:Day Name
  freezer schedule day 5,                 !- Monday Schedule:Day Name
  freezer schedule day 5,                 !- Tuesday Schedule:Day Name
  freezer schedule day 5,                 !- Wednesday Schedule:Day Name
  freezer schedule day 5,                 !- Thursday Schedule:Day Name
  freezer schedule day 5,                 !- Friday Schedule:Day Name
  freezer schedule day 5,                 !- Saturday Schedule:Day Name
  freezer schedule default day,           !- Holiday Schedule:Day Name
  freezer schedule default day,           !- SummerDesignDay Schedule:Day Name
  freezer schedule default day,           !- WinterDesignDay Schedule:Day Name
  freezer schedule default day,           !- CustomDay1 Schedule:Day Name
  freezer schedule default day;           !- CustomDay2 Schedule:Day Name

Schedule:Week:Daily,
  freezer schedule Week Rule - Nov25-Dec1, !- Name
  freezer schedule day 5,                 !- Sunday Schedule:Day Name
  freezer schedule day 5,                 !- Monday Schedule:Day Name
  freezer schedule day 5,                 !- Tuesday Schedule:Day Name
  freezer schedule day 5,                 !- Wednesday Schedule:Day Name
  freezer schedule day 5,                 !- Thursday Schedule:Day Name
  freezer schedule day 5,                 !- Friday Schedule:Day Name
  freezer schedule day 6,                 !- Saturday Schedule:Day Name
  freezer schedule default day,           !- Holiday Schedule:Day Name
  freezer schedule default day,           !- SummerDesignDay Schedule:Day Name
  freezer schedule default day,           !- WinterDesignDay Schedule:Day Name
  freezer schedule default day,           !- CustomDay1 Schedule:Day Name
  freezer schedule default day;           !- CustomDay2 Schedule:Day Name

Schedule:Week:Daily,
  freezer schedule Week Rule - Dec2-Dec31, !- Name
  freezer schedule day 6,                 !- Sunday Schedule:Day Name
  freezer schedule day 6,                 !- Monday Schedule:Day Name
  freezer schedule day 6,                 !- Tuesday Schedule:Day Name
  freezer schedule day 6,                 !- Wednesday Schedule:Day Name
  freezer schedule day 6,                 !- Thursday Schedule:Day Name
  freezer schedule day 6,                 !- Friday Schedule:Day Name
  freezer schedule day 6,                 !- Saturday Schedule:Day Name
  freezer schedule default day,           !- Holiday Schedule:Day Name
  freezer schedule default day,           !- SummerDesignDay Schedule:Day Name
  freezer schedule default day,           !- WinterDesignDay Schedule:Day Name
  freezer schedule default day,           !- CustomDay1 Schedule:Day Name
  freezer schedule default day;           !- CustomDay2 Schedule:Day Name

Schedule:Year,
  freezer schedule,                       !- Name
  Fractional,                             !- Schedule Type Limits Name
  freezer schedule Week Rule - Jan1-Jan27, !- Schedule:Week Name 1
  1,                                      !- Start Month 1
  1,                                      !- Start Day 1
  1,                                      !- End Month 1
  27,                                     !- End Day 1
  freezer schedule Week Rule - Jan28-Feb3, !- Schedule:Week Name 2
  1,                                      !- Start Month 2
  28,                                     !- Start Day 2
  2,                                      !- End Month 2
  3,                                      !- End Day 2
  freezer schedule Week Rule - Feb4-Feb24, !- Schedule:Week Name 3
  2,                                      !- Start Month 3
  4,                                      !- Start Day 3
  2,                                      !- End Month 3
  24,                                     !- End Day 3
  freezer schedule Week Rule - Feb25-Mar3, !- Schedule:Week Name 4
  2,                                      !- Start Month 4
  25,                                     !- Start Day 4
  3,                                      !- End Month 4
  3,                                      !- End Day 4
  freezer schedule Week Rule - Mar4-May26, !- Schedule:Week Name 5
  3,                                      !- Start Month 5
  4,                                      !- Start Day 5
  5,                                      !- End Month 5
  26,                                     !- End Day 5
  freezer schedule Week Rule - May27-Jun2, !- Schedule:Week Name 6
  5,                                      !- Start Month 6
  27,                                     !- Start Day 6
  6,                                      !- End Month 6
  2,                                      !- End Day 6
  freezer schedule Week Rule - Jun3-Sep29, !- Schedule:Week Name 7
  6,                                      !- Start Month 7
  3,                                      !- Start Day 7
  9,                                      !- End Month 7
  29,                                     !- End Day 7
  freezer schedule Week Rule - Sep30-Oct6, !- Schedule:Week Name 8
  9,                                      !- Start Month 8
  30,                                     !- Start Day 8
  10,                                     !- End Month 8
  6,                                      !- End Day 8
  freezer schedule Week Rule - Oct7-Oct27, !- Schedule:Week Name 9
  10,                                     !- Start Month 9
  7,                                      !- Start Day 9
  10,                                     !- End Month 9
  27,                                     !- End Day 9
  freezer schedule Week Rule - Oct28-Nov3, !- Schedule:Week Name 10
  10,                                     !- Start Month 10
  28,                                     !- Start Day 10
  11,                                     !- End Month 10
  3,                                      !- End Day 10
  freezer schedule Week Rule - Nov4-Nov24, !- Schedule:Week Name 11
  11,                                     !- Start Month 11
  4,                                      !- Start Day 11
  11,                                     !- End Month 11
  24,                                     !- End Day 11
  freezer schedule Week Rule - Nov25-Dec1, !- Schedule:Week Name 12
  11,                                     !- Start Month 12
  25,                                     !- Start Day 12
  12,                                     !- End Month 12
  1,                                      !- End Day 12
  freezer schedule Week Rule - Dec2-Dec31, !- Schedule:Week Name 13
  12,                                     !- Start Month 13
  2,                                      !- Start Day 13
  12,                                     !- End Month 13
  31;                                     !- End Day 13

Schedule:Day:Interval,
  freezer schedule default day,           !- Name
  Fractional,                             !- Schedule Type Limits Name
  No,                                     !- Interpolate to Timestep
  24:00,                                  !- Time 1 {hh:mm}
  0;                                      !- Value Until Time 1

OtherEquipment,
  water heater energy adjustment1,        !- Name
  Electricity,                            !- Fuel Type
  garage 1,                               !- Zone or ZoneList or Space or SpaceList Name
  Always On Discrete,                     !- Schedule Name
  EquipmentLevel,                         !- Design Level Calculation Method
  0.01,                                   !- Design Level {W}
  ,                                       !- Power per Floor Area {W/m2}
  ,                                       !- Power per Person {W/person}
  0,                                      !- Fraction Latent
  0,                                      !- Fraction Radiant
  1,                                      !- Fraction Lost
  ,                                       !- Carbon Dioxide Generation Rate {m3/s-W}
  water heater energy adjustment1;        !- End-Use Subcategory

OtherEquipment,
  water heater lat,                       !- Name
  None,                                   !- Fuel Type
  garage 1,                               !- Zone or ZoneList or Space or SpaceList Name
  Always On Discrete,                     !- Schedule Name
  EquipmentLevel,                         !- Design Level Calculation Method
  0,                                      !- Design Level {W}
  ,                                       !- Power per Floor Area {W/m2}
  ,                                       !- Power per Person {W/person}
  1,                                      !- Fraction Latent
  0,                                      !- Fraction Radiant
  0,                                      !- Fraction Lost
  ,                                       !- Carbon Dioxide Generation Rate {m3/s-W}
  General;                                !- End-Use Subcategory

OtherEquipment,
  water heater sens,                      !- Name
  None,                                   !- Fuel Type
  garage 1,                               !- Zone or ZoneList or Space or SpaceList Name
  Always On Discrete,                     !- Schedule Name
  EquipmentLevel,                         !- Design Level Calculation Method
  0,                                      !- Design Level {W}
  ,                                       !- Power per Floor Area {W/m2}
  ,                                       !- Power per Person {W/person}
  0,                                      !- Fraction Latent
  0,                                      !- Fraction Radiant
  0,                                      !- Fraction Lost
  ,                                       !- Carbon Dioxide Generation Rate {m3/s-W}
  General;                                !- End-Use Subcategory

ZoneInfiltration:EffectiveLeakageArea,
  infil garage 1,                         !- Name
  garage 1,                               !- Zone or Space Name
  Always On Discrete,                     !- Schedule Name
  407.75519742152,                        !- Effective Air Leakage Area {cm2}
  0.000129147378584692,                   !- Stack Coefficient
  4.64656772065491e-05;                   !- Wind Coefficient

SimulationControl,
  No,                                     !- Do Zone Sizing Calculation
  No,                                     !- Do System Sizing Calculation
  No,                                     !- Do Plant Sizing Calculation
  No,                                     !- Run Simulation for Sizing Periods
  Yes,                                    !- Run Simulation for Weather File Run Periods
  ,                                       !- Do HVAC Sizing Simulation for Sizing Periods
  ;                                       !- Maximum Number of HVAC Sizing Simulation Passes

ConvergenceLimits,
  0;                                      !- Minimum System Timestep {minutes}

RunPeriod,
  Run Period 1,                           !- Name
  1,                                      !- Begin Month
  1,                                      !- Begin Day of Month
  2018,                                   !- Begin Year
  12,                                     !- End Month
  31,                                     !- End Day of Month
  2018,                                   !- End Year
  Monday,                                 !- Day of Week for Start Day
  No,                                     !- Use Weather File Holidays and Special Days
  No,                                     !- Use Weather File Daylight Saving Period
  No,                                     !- Apply Weekend Holiday Rule
  Yes,                                    !- Use Weather File Rain Indicators
  Yes;                                    !- Use Weather File Snow Indicators

ShadowCalculation,
  PolygonClipping,                        !- Shading Calculation Method
  Periodic,                               !- Shading Calculation Update Frequency Method
  20,                                     !- Shading Calculation Update Frequency
  200,                                    !- Maximum Figures in Shadow Overlap Calculations
  SutherlandHodgman,                      !- Polygon Clipping Algorithm
  512,                                    !- Pixel Counting Resolution
  SimpleSkyDiffuseModeling,               !- Sky Diffuse Modeling Algorithm
  No,                                     !- Output External Shading Calculation Results
  No,                                     !- Disable Self-Shading Within Shading Zone Groups
  No;                                     !- Disable Self-Shading From Shading Zone Groups to Other Zones

SurfaceConvectionAlgorithm:Inside,
  TARP;                                   !- Algorithm

SurfaceConvectionAlgorithm:Outside,
  DOE-2;                                  !- Algorithm

ZoneCapacitanceMultiplier:ResearchSpecial,
  Zone Capacitance Multiplier Research Special, !- Name
  ,                                       !- Zone or ZoneList Name
  7,                                      !- Temperature Capacity Multiplier
  15,                                     !- Humidity Capacity Multiplier
  ,                                       !- Carbon Dioxide Capacity Multiplier
  ;                                       !- Generic Contaminant Capacity Multiplier

Sizing:Parameters,
  1.25,                                   !- Heating Sizing Factor
  1.15;                                   !- Cooling Sizing Factor

Output:Table:SummaryReports,
  AllSummary;                             !- Report Name 1

GlobalGeometryRules,
  UpperLeftCorner,                        !- Starting Vertex Position
  Counterclockwise,                       !- Vertex Entry Direction
  Relative,                               !- Coordinate System
  Relative,                               !- Daylighting Reference Point Coordinate System
  Relative;                               !- Rectangular Surface Coordinate System

Material,
  concrete 4.0 in.,                       !- Name
  Rough,                                  !- Roughness
  0.1016,                                 !- Thickness {m}
  1.803125,                               !- Conductivity {W/m-K}
  2242.8,                                 !- Density {kg/m3}
  837.4,                                  !- Specific Heat {J/kg-K}
  0.9,                                    !- Thermal Absorptance
  0.7,                                    !- Solar Absorptance
  0.7;                                    !- Visible Absorptance

Material,
  concrete 8.0 in.,                       !- Name
  Rough,                                  !- Roughness
  0.2032,                                 !- Thickness {m}
  1.803125,                               !- Conductivity {W/m-K}
  2242.8,                                 !- Density {kg/m3}
  837.4,                                  !- Specific Heat {J/kg-K}
  0.9,                                    !- Thermal Absorptance
  0.7,                                    !- Solar Absorptance
  0.7;                                    !- Visible Absorptance

Material,
  door material,                          !- Name
  Rough,                                  !- Roughness
  0.04445,                                !- Thickness {m}
  0.0612266553480475,                     !- Conductivity {W/m-K}
  512.64,                                 !- Density {kg/m3}
  1214.23,                                !- Specific Heat {J/kg-K}
  0.9,                                    !- Thermal Absorptance
  0.7,                                    !- Solar Absorptance
  0.7;                                    !- Visible Absorptance

Material,
  floor covering,                         !- Name
  Rough,                                  !- Roughness
  0.0127,                                 !- Thickness {m}
  0.0433443509615385,                     !- Conductivity {W/m-K}
  54.468,                                 !- Density {kg/m3}
  1339.84,                                !- Specific Heat {J/kg-K}
  0.9,                                    !- Thermal Absorptance
  0.6,                                    !- Solar Absorptance
  0.6;                                    !- Visible Absorptance

Material,
  floor rigid ins,                        !- Name
  Rough,                                  !- Roughness
  0.051816,                               !- Thickness {m}
  0.029427,                               !- Conductivity {W/m-K}
  32.04,                                  !- Density {kg/m3}
  1214.23,                                !- Specific Heat {J/kg-K}
  0.9,                                    !- Thermal Absorptance
  0.7,                                    !- Solar Absorptance
  0.7;                                    !- Visible Absorptance

Material,
  floor stud and cavity,                  !- Name
  Rough,                                  !- Roughness
  0.1397,                                 !- Thickness {m}
  0.0972396202374407,                     !- Conductivity {W/m-K}
  92.3553,                                !- Density {kg/m3}
  1139.71374674761,                       !- Specific Heat {J/kg-K}
  0.9,                                    !- Thermal Absorptance
  0.7,                                    !- Solar Absorptance
  0.7;                                    !- Visible Absorptance

Material,
  furniture material conditioned space 1, !- Name
  Rough,                                  !- Roughness
  0.1524,                                 !- Thickness {m}
  0.1154577,                              !- Conductivity {W/m-K}
  640.8,                                  !- Density {kg/m3}
  1214.23,                                !- Specific Heat {J/kg-K}
  0.9,                                    !- Thermal Absorptance
  0.6,                                    !- Solar Absorptance
  0.6;                                    !- Visible Absorptance

Material,
  furniture material garage 1,            !- Name
  Rough,                                  !- Roughness
  0.1524,                                 !- Thickness {m}
  0.1154577,                              !- Conductivity {W/m-K}
  640.8,                                  !- Density {kg/m3}
  1214.23,                                !- Specific Heat {J/kg-K}
  0.9,                                    !- Thermal Absorptance
  0.6,                                    !- Solar Absorptance
  0.6;                                    !- Visible Absorptance

Material,
  gypsum board,                           !- Name
  Rough,                                  !- Roughness
  0.0127,                                 !- Thickness {m}
  0.1602906,                              !- Conductivity {W/m-K}
  801,                                    !- Density {kg/m3}
  837.4,                                  !- Specific Heat {J/kg-K}
  0.9,                                    !- Thermal Absorptance
  0.6,                                    !- Solar Absorptance
  0.6;                                    !- Visible Absorptance

Material,
  osb sheathing 0.5 in.,                  !- Name
  Rough,                                  !- Roughness
  0.0127,                                 !- Thickness {m}
  0.1154577,                              !- Conductivity {W/m-K}
  512.64,                                 !- Density {kg/m3}
  1214.23,                                !- Specific Heat {J/kg-K}
  0.9,                                    !- Thermal Absorptance
  0.6,                                    !- Solar Absorptance
  0.6;                                    !- Visible Absorptance

Material,
  osb sheathing 0.5 in. 1,                !- Name
  Rough,                                  !- Roughness
  0.0127,                                 !- Thickness {m}
  0.1154577,                              !- Conductivity {W/m-K}
  512.64,                                 !- Density {kg/m3}
  1214.23,                                !- Specific Heat {J/kg-K}
  0.9,                                    !- Thermal Absorptance
  0.7,                                    !- Solar Absorptance
  0.7;                                    !- Visible Absorptance

Material,
  osb sheathing 0.5 in. 2,                !- Name
  Rough,                                  !- Roughness
  0.0127,                                 !- Thickness {m}
  0.1154577,                              !- Conductivity {W/m-K}
  512.64,                                 !- Density {kg/m3}
  1214.23,                                !- Specific Heat {J/kg-K}
  0.9,                                    !- Thermal Absorptance
  0.7,                                    !- Solar Absorptance
  0.7;                                    !- Visible Absorptance

Material,
  osb sheathing 0.5 in. 3,                !- Name
  Rough,                                  !- Roughness
  0.0127,                                 !- Thickness {m}
  0.1154577,                              !- Conductivity {W/m-K}
  512.64,                                 !- Density {kg/m3}
  1214.23,                                !- Specific Heat {J/kg-K}
  0.9,                                    !- Thermal Absorptance
  0.7,                                    !- Solar Absorptance
  0.7;                                    !- Visible Absorptance

Material,
  osb sheathing 0.75 in.,                 !- Name
  Rough,                                  !- Roughness
  0.01905,                                !- Thickness {m}
  0.1154577,                              !- Conductivity {W/m-K}
  512.64,                                 !- Density {kg/m3}
  1214.23,                                !- Specific Heat {J/kg-K}
  0.9,                                    !- Thermal Absorptance
  0.7,                                    !- Solar Absorptance
  0.7;                                    !- Visible Absorptance

Material,
  rim joist stud and cavity,              !- Name
  Rough,                                  !- Roughness
  0.0508,                                 !- Thickness {m}
  0.178687637940209,                      !- Conductivity {W/m-K}
  50.32683,                               !- Density {kg/m3}
  1063.80987585548,                       !- Specific Heat {J/kg-K}
  0.9,                                    !- Thermal Absorptance
  0.6,                                    !- Solar Absorptance
  0.6;                                    !- Visible Absorptance

Material,
  roof rigid ins,                         !- Name
  Rough,                                  !- Roughness
  0.00302951261985337,                    !- Thickness {m}
  0.029427,                               !- Conductivity {W/m-K}
  32.04,                                  !- Density {kg/m3}
  1214.23,                                !- Specific Heat {J/kg-K}
  0.9,                                    !- Thermal Absorptance
  0.7,                                    !- Solar Absorptance
  0.7;                                    !- Visible Absorptance

Material,
  roof rigid ins 1,                       !- Name
  Rough,                                  !- Roughness
  0.103632,                               !- Thickness {m}
  0.029427,                               !- Conductivity {W/m-K}
  32.04,                                  !- Density {kg/m3}
  1214.23,                                !- Specific Heat {J/kg-K}
  0.9,                                    !- Thermal Absorptance
  0.7,                                    !- Solar Absorptance
  0.7;                                    !- Visible Absorptance

Material,
  roof stud and cavity,                   !- Name
  Rough,                                  !- Roughness
  0.2032,                                 !- Thickness {m}
  0.082297133660053,                      !- Conductivity {W/m-K}
  78.34581,                               !- Density {kg/m3}
  1123.46101114405,                       !- Specific Heat {J/kg-K}
  0.9,                                    !- Thermal Absorptance
  0.7,                                    !- Solar Absorptance
  0.7;                                    !- Visible Absorptance

Material,
  slate or tile shingles,                 !- Name
  Rough,                                  !- Roughness
  0.01905,                                !- Thickness {m}
  0.8409775,                              !- Conductivity {W/m-K}
  1899.972,                               !- Density {kg/m3}
  799.717,                                !- Specific Heat {J/kg-K}
  0.9,                                    !- Thermal Absorptance
  0.75,                                   !- Solar Absorptance
  0.75;                                   !- Visible Absorptance

Material,
  soil 0.5 in.,                           !- Name
  Rough,                                  !- Roughness
  0.0127,                                 !- Thickness {m}
  1.3848,                                 !- Conductivity {W/m-K}
  1842.3,                                 !- Density {kg/m3}
  418.7,                                  !- Specific Heat {J/kg-K}
  0.9,                                    !- Thermal Absorptance
  0.7,                                    !- Solar Absorptance
  0.7;                                    !- Visible Absorptance

Material,
  wall rigid ins,                         !- Name
  Rough,                                  !- Roughness
  0.5129784,                              !- Thickness {m}
  0.029427,                               !- Conductivity {W/m-K}
  32.04,                                  !- Density {kg/m3}
  1214.23,                                !- Specific Heat {J/kg-K}
  0.9,                                    !- Thermal Absorptance
  0.7,                                    !- Solar Absorptance
  0.7;                                    !- Visible Absorptance

Material,
  wall stud and cavity,                   !- Name
  Rough,                                  !- Roughness
  0.1397,                                 !- Thickness {m}
  0.727959376833552,                      !- Conductivity {W/m-K}
  139.0536,                               !- Density {kg/m3}
  1170.23755760369,                       !- Specific Heat {J/kg-K}
  0.9,                                    !- Thermal Absorptance
  0.6,                                    !- Solar Absorptance
  0.6;                                    !- Visible Absorptance

Material,
  wall stud and cavity 1,                 !- Name
  Rough,                                  !- Roughness
  0.1397,                                 !- Thickness {m}
  0.0951300644874275,                     !- Conductivity {W/m-K}
  139.0536,                               !- Density {kg/m3}
  1170.23755760369,                       !- Specific Heat {J/kg-K}
  0.9,                                    !- Thermal Absorptance
  0.7,                                    !- Solar Absorptance
  0.7;                                    !- Visible Absorptance

Material,
  wall stud and cavity 2,                 !- Name
  Rough,                                  !- Roughness
  0.1397,                                 !- Thickness {m}
  0.0856281891198488,                     !- Conductivity {W/m-K}
  139.0536,                               !- Density {kg/m3}
  1170.23755760369,                       !- Specific Heat {J/kg-K}
  0.9,                                    !- Thermal Absorptance
  0.7,                                    !- Solar Absorptance
  0.7;                                    !- Visible Absorptance

Material,
  wall stud and cavity 3,                 !- Name
  Rough,                                  !- Roughness
  0.0889,                                 !- Thickness {m}
  0.380278417457636,                      !- Conductivity {W/m-K}
  52.34794524,                            !- Density {kg/m3}
  1209.88641434781,                       !- Specific Heat {J/kg-K}
  0.9,                                    !- Thermal Absorptance
  0.7,                                    !- Solar Absorptance
  0.7;                                    !- Visible Absorptance

Material,
  wall stud and cavity 4,                 !- Name
  Rough,                                  !- Roughness
  0.0889,                                 !- Thickness {m}
  0.391763531157105,                      !- Conductivity {W/m-K}
  83.034082224,                           !- Density {kg/m3}
  1211.67419087611,                       !- Specific Heat {J/kg-K}
  0.9,                                    !- Thermal Absorptance
  0.7,                                    !- Solar Absorptance
  0.7;                                    !- Visible Absorptance

Material,
  wood siding,                            !- Name
  Rough,                                  !- Roughness
  0.0254,                                 !- Thickness {m}
  0.1024175,                              !- Conductivity {W/m-K}
  544.68,                                 !- Density {kg/m3}
  1172.36,                                !- Specific Heat {J/kg-K}
  0.9,                                    !- Thermal Absorptance
  0.85,                                   !- Solar Absorptance
  0.85;                                   !- Visible Absorptance

Material,
  wood siding 1,                          !- Name
  Rough,                                  !- Roughness
  0.0254,                                 !- Thickness {m}
  0.1024175,                              !- Conductivity {W/m-K}
  544.68,                                 !- Density {kg/m3}
  1172.36,                                !- Specific Heat {J/kg-K}
  0.9,                                    !- Thermal Absorptance
  0.7,                                    !- Solar Absorptance
  0.7;                                    !- Visible Absorptance

Material,
  wood siding 2,                          !- Name
  Rough,                                  !- Roughness
  0.0254,                                 !- Thickness {m}
  0.1024175,                              !- Conductivity {W/m-K}
  544.68,                                 !- Density {kg/m3}
  1172.36,                                !- Specific Heat {J/kg-K}
  0.9,                                    !- Thermal Absorptance
  0.7,                                    !- Solar Absorptance
  0.7;                                    !- Visible Absorptance

Material:NoMass,
  Adiabatic,                              !- Name
  Rough,                                  !- Roughness
  176.1,                                  !- Thermal Resistance {m2-K/W}
  0.9,                                    !- Thermal Absorptance
  0.7,                                    !- Solar Absorptance
  0.7;                                    !- Visible Absorptance

WindowMaterial:SimpleGlazingSystem,
  WindowMaterial,                         !- Name
  2.78222,                                !- U-Factor {W/m2-K}
  0.56;                                   !- Solar Heat Gain Coefficient

Construction,
  AdiabaticConst,                         !- Name
  Adiabatic;                              !- Layer 1

Construction,
  AdiabaticWallConstruction,              !- Name
  wood siding 1,                          !- Layer 1
  wall rigid ins,                         !- Layer 2
  wall stud and cavity 3,                 !- Layer 3
  gypsum board;                           !- Layer 4

Construction,
  AdiabaticWallConstruction 1,            !- Name
  wood siding 2,                          !- Layer 1
  wall rigid ins,                         !- Layer 2
  wall stud and cavity 3,                 !- Layer 3
  gypsum board;                           !- Layer 4

Construction,
  Door,                                   !- Name
  door material;                          !- Layer 1

Construction,
  Floor1 construction,                    !- Name
  floor stud and cavity,                  !- Layer 1
  floor rigid ins,                        !- Layer 2
  osb sheathing 0.75 in.,                 !- Layer 3
  floor covering;                         !- Layer 4

Construction,
  Floor1 construction Reversed,           !- Name
  floor covering,                         !- Layer 1
  osb sheathing 0.75 in.,                 !- Layer 2
  floor rigid ins,                        !- Layer 3
  floor stud and cavity;                  !- Layer 4

Construction,
  FoundationWall1 construction,           !- Name
  concrete 8.0 in.;                       !- Layer 1

Construction,
  furniture construction conditioned space 1, !- Name
  furniture material conditioned space 1; !- Layer 1

Construction,
  furniture construction garage 1,        !- Name
  furniture material garage 1;            !- Layer 1

Construction,
  PartitionWallConstruction,              !- Name
  gypsum board,                           !- Layer 1
  wall stud and cavity 4,                 !- Layer 2
  gypsum board;                           !- Layer 3

Construction,
  RimJoist1 construction,                 !- Name
  wood siding,                            !- Layer 1
  rim joist stud and cavity;              !- Layer 2

Construction,
  RimJoist2 construction,                 !- Name
  wood siding,                            !- Layer 1
  rim joist stud and cavity;              !- Layer 2

Construction,
  RimJoist3 construction,                 !- Name
  wood siding,                            !- Layer 1
  rim joist stud and cavity;              !- Layer 2

Construction,
  RimJoist4 construction,                 !- Name
  wood siding,                            !- Layer 1
  rim joist stud and cavity;              !- Layer 2

Construction,
  Roof1 construction,                     !- Name
  slate or tile shingles,                 !- Layer 1
  roof rigid ins,                         !- Layer 2
  osb sheathing 0.5 in.;                  !- Layer 3

Construction,
  Roof2 construction,                     !- Name
  slate or tile shingles,                 !- Layer 1
  roof rigid ins 1,                       !- Layer 2
  osb sheathing 0.75 in.,                 !- Layer 3
  roof stud and cavity,                   !- Layer 4
  gypsum board;                           !- Layer 5

Construction,
  Slab1 construction,                     !- Name
  concrete 4.0 in.;                       !- Layer 1

Construction,
  Slab2 construction,                     !- Name
  soil 0.5 in.;                           !- Layer 1

Construction,
  Wall1 construction,                     !- Name
  wood siding,                            !- Layer 1
  osb sheathing 0.5 in. 1,                !- Layer 2
  wall stud and cavity;                   !- Layer 3

Construction,
  Wall2 construction,                     !- Name
  wood siding,                            !- Layer 1
  osb sheathing 0.5 in. 1,                !- Layer 2
  wall stud and cavity;                   !- Layer 3

Construction,
  Wall3 construction,                     !- Name
  wood siding,                            !- Layer 1
  osb sheathing 0.5 in. 1,                !- Layer 2
  wall stud and cavity 1,                 !- Layer 3
  gypsum board;                           !- Layer 4

Construction,
  Wall4 construction,                     !- Name
  wood siding,                            !- Layer 1
  osb sheathing 0.5 in. 1,                !- Layer 2
  wall stud and cavity 1,                 !- Layer 3
  gypsum board;                           !- Layer 4

Construction,
  Wall5 construction,                     !- Name
  osb sheathing 0.5 in. 2,                !- Layer 1
  wall stud and cavity 2,                 !- Layer 2
  gypsum board;                           !- Layer 3

Construction,
  Wall5 construction Reversed,            !- Name
  gypsum board,                           !- Layer 1
  wall stud and cavity 2,                 !- Layer 2
  osb sheathing 0.5 in. 2;                !- Layer 3

Construction,
  Wall6 construction,                     !- Name
  osb sheathing 0.5 in. 3,                !- Layer 1
  wall stud and cavity 2,                 !- Layer 2
  gypsum board;                           !- Layer 3

Construction,
  Wall6 construction Reversed,            !- Name
  gypsum board,                           !- Layer 1
  wall stud and cavity 2,                 !- Layer 2
  osb sheathing 0.5 in. 3;                !- Layer 3

Construction,
  Wall7 construction,                     !- Name
  wood siding,                            !- Layer 1
  osb sheathing 0.5 in. 3,                !- Layer 2
  wall stud and cavity 1,                 !- Layer 3
  gypsum board;                           !- Layer 4

Construction,
  Wall8 construction,                     !- Name
  wood siding,                            !- Layer 1
  osb sheathing 0.5 in. 3,                !- Layer 2
  wall stud and cavity 1,                 !- Layer 3
  gypsum board;                           !- Layer 4

Construction,
  Wall9 construction,                     !- Name
  wood siding,                            !- Layer 1
  osb sheathing 0.5 in. 3,                !- Layer 2
  wall stud and cavity;                   !- Layer 3

Construction,
  WindowConstruction,                     !- Name
  WindowMaterial;                         !- Layer 1

Construction,
  WindowConstruction 1,                   !- Name
  WindowMaterial;                         !- Layer 1

Construction,
  WindowConstruction 2,                   !- Name
  WindowMaterial;                         !- Layer 1

Construction,
  WindowConstruction 3,                   !- Name
  WindowMaterial;                         !- Layer 1

Schedule:Constant,
  Always Off Discrete,                    !- Name
  OnOff 1,                                !- Schedule Type Limits Name
  0;                                      !- Hourly Value

ScheduleTypeLimits,
  ActivityLevel,                          !- Name
  0,                                      !- Lower Limit Value {BasedOnField A3}
  ,                                       !- Upper Limit Value {BasedOnField A3}
  Continuous,                             !- Numeric Type
  activitylevel;                          !- Unit Type

ScheduleTypeLimits,
  Fractional 1,                           !- Name
  0,                                      !- Lower Limit Value {BasedOnField A3}
  1,                                      !- Upper Limit Value {BasedOnField A3}
  Continuous;                             !- Numeric Type

ScheduleTypeLimits,
  OnOff,                                  !- Name
  0,                                      !- Lower Limit Value {BasedOnField A3}
  1,                                      !- Upper Limit Value {BasedOnField A3}
  Discrete,                               !- Numeric Type
  availability;                           !- Unit Type

ScheduleTypeLimits,
  OnOff 1,                                !- Name
  0,                                      !- Lower Limit Value {BasedOnField A3}
  1,                                      !- Upper Limit Value {BasedOnField A3}
  Discrete,                               !- Numeric Type
  availability;                           !- Unit Type

Schedule:Constant,
  air source heat pump auto fan schedule, !- Name
  OnOff,                                  !- Schedule Type Limits Name
  0;                                      !- Hourly Value

Schedule:Constant,
  dhw temp,                               !- Name
  Temperature,                            !- Schedule Type Limits Name
  51.6666666666667;                       !- Hourly Value

Schedule:Constant,
  mixed water temperature schedule,       !- Name
  Temperature,                            !- Schedule Type Limits Name
  40.5555555555556;                       !- Hourly Value

Schedule:Constant,
  Sequential Fraction Schedule,           !- Name
  Fractional,                             !- Schedule Type Limits Name
  1;                                      !- Hourly Value

Schedule:Constant,
  Sequential Fraction Schedule 1,         !- Name
  Fractional,                             !- Schedule Type Limits Name
  1;                                      !- Hourly Value

Schedule:Constant,
  water heater BottomElementSetpoint,     !- Name
  Temperature,                            !- Schedule Type Limits Name
  0;                                      !- Hourly Value

Schedule:Constant,
  water heater RHamb act,                 !- Name
  Fractional,                             !- Schedule Type Limits Name
  0.5;                                    !- Hourly Value

Schedule:Constant,
  water heater setpoint,                  !- Name
  Temperature,                            !- Schedule Type Limits Name
  51.6666666666667;                       !- Hourly Value

Schedule:Constant,
  water heater Tamb act,                  !- Name
  Temperature,                            !- Schedule Type Limits Name
  23;                                     !- Hourly Value

Schedule:Constant,
  water heater TopElementSetpoint,        !- Name
  Temperature,                            !- Schedule Type Limits Name
  0;                                      !- Hourly Value

Schedule:Day:Interval,
  cooling season schedule day,            !- Name
  Fractional,                             !- Schedule Type Limits Name
  No,                                     !- Interpolate to Timestep
  24:00,                                  !- Time 1 {hh:mm}
  0;                                      !- Value Until Time 1

Schedule:Day:Interval,
  cooling season schedule day 1,          !- Name
  Fractional,                             !- Schedule Type Limits Name
  No,                                     !- Interpolate to Timestep
  24:00,                                  !- Time 1 {hh:mm}
  1;                                      !- Value Until Time 1

Schedule:Day:Interval,
  cooling season schedule day 2,          !- Name
  Fractional,                             !- Schedule Type Limits Name
  No,                                     !- Interpolate to Timestep
  24:00,                                  !- Time 1 {hh:mm}
  0;                                      !- Value Until Time 1

Schedule:Day:Interval,
  cooling season schedule default day,    !- Name
  Fractional,                             !- Schedule Type Limits Name
  No,                                     !- Interpolate to Timestep
  24:00,                                  !- Time 1 {hh:mm}
  0;                                      !- Value Until Time 1

Schedule:Day:Interval,
  exterior lighting schedule day,         !- Name
  Fractional,                             !- Schedule Type Limits Name
  No,                                     !- Interpolate to Timestep
  01:00,                                  !- Time 1 {hh:mm}
  0.566666666666667,                      !- Value Until Time 1
  03:00,                                  !- Time 2 {hh:mm}
  0.524166666666667,                      !- Value Until Time 2
  05:00,                                  !- Time 3 {hh:mm}
  0.495833333333333,                      !- Value Until Time 3
  06:00,                                  !- Time 4 {hh:mm}
  0.5525,                                 !- Value Until Time 4
  07:00,                                  !- Time 5 {hh:mm}
  0.623333333333333,                      !- Value Until Time 5
  08:00,                                  !- Time 6 {hh:mm}
  0.580833333333333,                      !- Value Until Time 6
  09:00,                                  !- Time 7 {hh:mm}
  0.439166666666667,                      !- Value Until Time 7
  10:00,                                  !- Time 8 {hh:mm}
  0.354166666666667,                      !- Value Until Time 8
  12:00,                                  !- Time 9 {hh:mm}
  0.34,                                   !- Value Until Time 9
  13:00,                                  !- Time 10 {hh:mm}
  0.354166666666667,                      !- Value Until Time 10
  14:00,                                  !- Time 11 {hh:mm}
  0.396666666666667,                      !- Value Until Time 11
  15:00,                                  !- Time 12 {hh:mm}
  0.425,                                  !- Value Until Time 12
  16:00,                                  !- Time 13 {hh:mm}
  0.495833333333333,                      !- Value Until Time 13
  17:00,                                  !- Time 14 {hh:mm}
  0.623333333333333,                      !- Value Until Time 14
  18:00,                                  !- Time 15 {hh:mm}
  0.793333333333333,                      !- Value Until Time 15
  19:00,                                  !- Time 16 {hh:mm}
  0.906666666666667,                      !- Value Until Time 16
  20:00,                                  !- Time 17 {hh:mm}
  0.963333333333333,                      !- Value Until Time 17
  21:00,                                  !- Time 18 {hh:mm}
  0.991666666666667,                      !- Value Until Time 18
  22:00,                                  !- Time 19 {hh:mm}
  0.920833333333333,                      !- Value Until Time 19
  23:00,                                  !- Time 20 {hh:mm}
  0.793333333333333,                      !- Value Until Time 20
  24:00,                                  !- Time 21 {hh:mm}
  0.665833333333333;                      !- Value Until Time 21

Schedule:Day:Interval,
  exterior lighting schedule day 1,       !- Name
  Fractional,                             !- Schedule Type Limits Name
  No,                                     !- Interpolate to Timestep
  01:00,                                  !- Time 1 {hh:mm}
  0.528571428571429,                      !- Value Until Time 1
  03:00,                                  !- Time 2 {hh:mm}
  0.488928571428571,                      !- Value Until Time 2
  05:00,                                  !- Time 3 {hh:mm}
  0.4625,                                 !- Value Until Time 3
  06:00,                                  !- Time 4 {hh:mm}
  0.515357142857143,                      !- Value Until Time 4
  07:00,                                  !- Time 5 {hh:mm}
  0.581428571428571,                      !- Value Until Time 5
  08:00,                                  !- Time 6 {hh:mm}
  0.541785714285714,                      !- Value Until Time 6
  09:00,                                  !- Time 7 {hh:mm}
  0.409642857142857,                      !- Value Until Time 7
  10:00,                                  !- Time 8 {hh:mm}
  0.330357142857143,                      !- Value Until Time 8
  12:00,                                  !- Time 9 {hh:mm}
  0.317142857142857,                      !- Value Until Time 9
  13:00,                                  !- Time 10 {hh:mm}
  0.330357142857143,                      !- Value Until Time 10
  14:00,                                  !- Time 11 {hh:mm}
  0.37,                                   !- Value Until Time 11
  15:00,                                  !- Time 12 {hh:mm}
  0.396428571428571,                      !- Value Until Time 12
  16:00,                                  !- Time 13 {hh:mm}
  0.4625,                                 !- Value Until Time 13
  17:00,                                  !- Time 14 {hh:mm}
  0.581428571428571,                      !- Value Until Time 14
  18:00,                                  !- Time 15 {hh:mm}
  0.74,                                   !- Value Until Time 15
  19:00,                                  !- Time 16 {hh:mm}
  0.845714285714286,                      !- Value Until Time 16
  20:00,                                  !- Time 17 {hh:mm}
  0.898571428571429,                      !- Value Until Time 17
  21:00,                                  !- Time 18 {hh:mm}
  0.925,                                  !- Value Until Time 18
  22:00,                                  !- Time 19 {hh:mm}
  0.858928571428571,                      !- Value Until Time 19
  23:00,                                  !- Time 20 {hh:mm}
  0.74,                                   !- Value Until Time 20
  24:00,                                  !- Time 21 {hh:mm}
  0.621071428571429;                      !- Value Until Time 21

Schedule:Day:Interval,
  exterior lighting schedule day 10,      !- Name
  Fractional,                             !- Schedule Type Limits Name
  No,                                     !- Interpolate to Timestep
  01:00,                                  !- Time 1 {hh:mm}
  0.552380952380952,                      !- Value Until Time 1
  03:00,                                  !- Time 2 {hh:mm}
  0.510952380952381,                      !- Value Until Time 2
  05:00,                                  !- Time 3 {hh:mm}
  0.483333333333333,                      !- Value Until Time 3
  06:00,                                  !- Time 4 {hh:mm}
  0.538571428571428,                      !- Value Until Time 4
  07:00,                                  !- Time 5 {hh:mm}
  0.607619047619048,                      !- Value Until Time 5
  08:00,                                  !- Time 6 {hh:mm}
  0.566190476190476,                      !- Value Until Time 6
  09:00,                                  !- Time 7 {hh:mm}
  0.428095238095238,                      !- Value Until Time 7
  10:00,                                  !- Time 8 {hh:mm}
  0.345238095238095,                      !- Value Until Time 8
  12:00,                                  !- Time 9 {hh:mm}
  0.331428571428571,                      !- Value Until Time 9
  13:00,                                  !- Time 10 {hh:mm}
  0.345238095238095,                      !- Value Until Time 10
  14:00,                                  !- Time 11 {hh:mm}
  0.386666666666667,                      !- Value Until Time 11
  15:00,                                  !- Time 12 {hh:mm}
  0.414285714285714,                      !- Value Until Time 12
  16:00,                                  !- Time 13 {hh:mm}
  0.483333333333333,                      !- Value Until Time 13
  17:00,                                  !- Time 14 {hh:mm}
  0.607619047619048,                      !- Value Until Time 14
  18:00,                                  !- Time 15 {hh:mm}
  0.773333333333333,                      !- Value Until Time 15
  19:00,                                  !- Time 16 {hh:mm}
  0.883809523809524,                      !- Value Until Time 16
  20:00,                                  !- Time 17 {hh:mm}
  0.939047619047619,                      !- Value Until Time 17
  21:00,                                  !- Time 18 {hh:mm}
  0.966666666666667,                      !- Value Until Time 18
  22:00,                                  !- Time 19 {hh:mm}
  0.897619047619048,                      !- Value Until Time 19
  23:00,                                  !- Time 20 {hh:mm}
  0.773333333333333,                      !- Value Until Time 20
  24:00,                                  !- Time 21 {hh:mm}
  0.649047619047619;                      !- Value Until Time 21

Schedule:Day:Interval,
  exterior lighting schedule day 11,      !- Name
  Fractional,                             !- Schedule Type Limits Name
  No,                                     !- Interpolate to Timestep
  01:00,                                  !- Time 1 {hh:mm}
  0.571428571428571,                      !- Value Until Time 1
  03:00,                                  !- Time 2 {hh:mm}
  0.528571428571428,                      !- Value Until Time 2
  05:00,                                  !- Time 3 {hh:mm}
  0.5,                                    !- Value Until Time 3
  06:00,                                  !- Time 4 {hh:mm}
  0.557142857142857,                      !- Value Until Time 4
  07:00,                                  !- Time 5 {hh:mm}
  0.628571428571428,                      !- Value Until Time 5
  08:00,                                  !- Time 6 {hh:mm}
  0.585714285714286,                      !- Value Until Time 6
  09:00,                                  !- Time 7 {hh:mm}
  0.442857142857143,                      !- Value Until Time 7
  10:00,                                  !- Time 8 {hh:mm}
  0.357142857142857,                      !- Value Until Time 8
  12:00,                                  !- Time 9 {hh:mm}
  0.342857142857143,                      !- Value Until Time 9
  13:00,                                  !- Time 10 {hh:mm}
  0.357142857142857,                      !- Value Until Time 10
  14:00,                                  !- Time 11 {hh:mm}
  0.4,                                    !- Value Until Time 11
  15:00,                                  !- Time 12 {hh:mm}
  0.428571428571428,                      !- Value Until Time 12
  16:00,                                  !- Time 13 {hh:mm}
  0.5,                                    !- Value Until Time 13
  17:00,                                  !- Time 14 {hh:mm}
  0.628571428571428,                      !- Value Until Time 14
  18:00,                                  !- Time 15 {hh:mm}
  0.8,                                    !- Value Until Time 15
  19:00,                                  !- Time 16 {hh:mm}
  0.914285714285714,                      !- Value Until Time 16
  20:00,                                  !- Time 17 {hh:mm}
  0.971428571428571,                      !- Value Until Time 17
  21:00,                                  !- Time 18 {hh:mm}
  1,                                      !- Value Until Time 18
  22:00,                                  !- Time 19 {hh:mm}
  0.928571428571428,                      !- Value Until Time 19
  23:00,                                  !- Time 20 {hh:mm}
  0.8,                                    !- Value Until Time 20
  24:00,                                  !- Time 21 {hh:mm}
  0.671428571428571;                      !- Value Until Time 21

Schedule:Day:Interval,
  exterior lighting schedule day 2,       !- Name
  Fractional,                             !- Schedule Type Limits Name
  No,                                     !- Interpolate to Timestep
  01:00,                                  !- Time 1 {hh:mm}
  0.485714285714286,                      !- Value Until Time 1
  03:00,                                  !- Time 2 {hh:mm}
  0.449285714285714,                      !- Value Until Time 2
  05:00,                                  !- Time 3 {hh:mm}
  0.425,                                  !- Value Until Time 3
  06:00,                                  !- Time 4 {hh:mm}
  0.473571428571429,                      !- Value Until Time 4
  07:00,                                  !- Time 5 {hh:mm}
  0.534285714285714,                      !- Value Until Time 5
  08:00,                                  !- Time 6 {hh:mm}
  0.497857142857143,                      !- Value Until Time 6
  09:00,                                  !- Time 7 {hh:mm}
  0.376428571428571,                      !- Value Until Time 7
  10:00,                                  !- Time 8 {hh:mm}
  0.303571428571429,                      !- Value Until Time 8
  12:00,                                  !- Time 9 {hh:mm}
  0.291428571428571,                      !- Value Until Time 9
  13:00,                                  !- Time 10 {hh:mm}
  0.303571428571429,                      !- Value Until Time 10
  14:00,                                  !- Time 11 {hh:mm}
  0.34,                                   !- Value Until Time 11
  15:00,                                  !- Time 12 {hh:mm}
  0.364285714285714,                      !- Value Until Time 12
  16:00,                                  !- Time 13 {hh:mm}
  0.425,                                  !- Value Until Time 13
  17:00,                                  !- Time 14 {hh:mm}
  0.534285714285714,                      !- Value Until Time 14
  18:00,                                  !- Time 15 {hh:mm}
  0.68,                                   !- Value Until Time 15
  19:00,                                  !- Time 16 {hh:mm}
  0.777142857142857,                      !- Value Until Time 16
  20:00,                                  !- Time 17 {hh:mm}
  0.825714285714286,                      !- Value Until Time 17
  21:00,                                  !- Time 18 {hh:mm}
  0.85,                                   !- Value Until Time 18
  22:00,                                  !- Time 19 {hh:mm}
  0.789285714285714,                      !- Value Until Time 19
  23:00,                                  !- Time 20 {hh:mm}
  0.68,                                   !- Value Until Time 20
  24:00,                                  !- Time 21 {hh:mm}
  0.570714285714286;                      !- Value Until Time 21

Schedule:Day:Interval,
  exterior lighting schedule day 3,       !- Name
  Fractional,                             !- Schedule Type Limits Name
  No,                                     !- Interpolate to Timestep
  01:00,                                  !- Time 1 {hh:mm}
  0.442857142857143,                      !- Value Until Time 1
  03:00,                                  !- Time 2 {hh:mm}
  0.409642857142857,                      !- Value Until Time 2
  05:00,                                  !- Time 3 {hh:mm}
  0.3875,                                 !- Value Until Time 3
  06:00,                                  !- Time 4 {hh:mm}
  0.431785714285714,                      !- Value Until Time 4
  07:00,                                  !- Time 5 {hh:mm}
  0.487142857142857,                      !- Value Until Time 5
  08:00,                                  !- Time 6 {hh:mm}
  0.453928571428571,                      !- Value Until Time 6
  09:00,                                  !- Time 7 {hh:mm}
  0.343214285714286,                      !- Value Until Time 7
  10:00,                                  !- Time 8 {hh:mm}
  0.276785714285714,                      !- Value Until Time 8
  12:00,                                  !- Time 9 {hh:mm}
  0.265714285714286,                      !- Value Until Time 9
  13:00,                                  !- Time 10 {hh:mm}
  0.276785714285714,                      !- Value Until Time 10
  14:00,                                  !- Time 11 {hh:mm}
  0.31,                                   !- Value Until Time 11
  15:00,                                  !- Time 12 {hh:mm}
  0.332142857142857,                      !- Value Until Time 12
  16:00,                                  !- Time 13 {hh:mm}
  0.3875,                                 !- Value Until Time 13
  17:00,                                  !- Time 14 {hh:mm}
  0.487142857142857,                      !- Value Until Time 14
  18:00,                                  !- Time 15 {hh:mm}
  0.62,                                   !- Value Until Time 15
  19:00,                                  !- Time 16 {hh:mm}
  0.708571428571429,                      !- Value Until Time 16
  20:00,                                  !- Time 17 {hh:mm}
  0.752857142857143,                      !- Value Until Time 17
  21:00,                                  !- Time 18 {hh:mm}
  0.775,                                  !- Value Until Time 18
  22:00,                                  !- Time 19 {hh:mm}
  0.719642857142857,                      !- Value Until Time 19
  23:00,                                  !- Time 20 {hh:mm}
  0.62,                                   !- Value Until Time 20
  24:00,                                  !- Time 21 {hh:mm}
  0.520357142857143;                      !- Value Until Time 21

Schedule:Day:Interval,
  exterior lighting schedule day 4,       !- Name
  Fractional,                             !- Schedule Type Limits Name
  No,                                     !- Interpolate to Timestep
  01:00,                                  !- Time 1 {hh:mm}
  0.4,                                    !- Value Until Time 1
  03:00,                                  !- Time 2 {hh:mm}
  0.37,                                   !- Value Until Time 2
  05:00,                                  !- Time 3 {hh:mm}
  0.35,                                   !- Value Until Time 3
  06:00,                                  !- Time 4 {hh:mm}
  0.39,                                   !- Value Until Time 4
  07:00,                                  !- Time 5 {hh:mm}
  0.44,                                   !- Value Until Time 5
  08:00,                                  !- Time 6 {hh:mm}
  0.41,                                   !- Value Until Time 6
  09:00,                                  !- Time 7 {hh:mm}
  0.31,                                   !- Value Until Time 7
  10:00,                                  !- Time 8 {hh:mm}
  0.25,                                   !- Value Until Time 8
  12:00,                                  !- Time 9 {hh:mm}
  0.24,                                   !- Value Until Time 9
  13:00,                                  !- Time 10 {hh:mm}
  0.25,                                   !- Value Until Time 10
  14:00,                                  !- Time 11 {hh:mm}
  0.28,                                   !- Value Until Time 11
  15:00,                                  !- Time 12 {hh:mm}
  0.3,                                    !- Value Until Time 12
  16:00,                                  !- Time 13 {hh:mm}
  0.35,                                   !- Value Until Time 13
  17:00,                                  !- Time 14 {hh:mm}
  0.44,                                   !- Value Until Time 14
  18:00,                                  !- Time 15 {hh:mm}
  0.56,                                   !- Value Until Time 15
  19:00,                                  !- Time 16 {hh:mm}
  0.64,                                   !- Value Until Time 16
  20:00,                                  !- Time 17 {hh:mm}
  0.68,                                   !- Value Until Time 17
  21:00,                                  !- Time 18 {hh:mm}
  0.7,                                    !- Value Until Time 18
  22:00,                                  !- Time 19 {hh:mm}
  0.65,                                   !- Value Until Time 19
  23:00,                                  !- Time 20 {hh:mm}
  0.56,                                   !- Value Until Time 20
  24:00,                                  !- Time 21 {hh:mm}
  0.47;                                   !- Value Until Time 21

Schedule:Day:Interval,
  exterior lighting schedule day 5,       !- Name
  Fractional,                             !- Schedule Type Limits Name
  No,                                     !- Interpolate to Timestep
  01:00,                                  !- Time 1 {hh:mm}
  0.380952380952381,                      !- Value Until Time 1
  03:00,                                  !- Time 2 {hh:mm}
  0.352380952380952,                      !- Value Until Time 2
  05:00,                                  !- Time 3 {hh:mm}
  0.333333333333333,                      !- Value Until Time 3
  06:00,                                  !- Time 4 {hh:mm}
  0.371428571428571,                      !- Value Until Time 4
  07:00,                                  !- Time 5 {hh:mm}
  0.419047619047619,                      !- Value Until Time 5
  08:00,                                  !- Time 6 {hh:mm}
  0.39047619047619,                       !- Value Until Time 6
  09:00,                                  !- Time 7 {hh:mm}
  0.295238095238095,                      !- Value Until Time 7
  10:00,                                  !- Time 8 {hh:mm}
  0.238095238095238,                      !- Value Until Time 8
  12:00,                                  !- Time 9 {hh:mm}
  0.228571428571429,                      !- Value Until Time 9
  13:00,                                  !- Time 10 {hh:mm}
  0.238095238095238,                      !- Value Until Time 10
  14:00,                                  !- Time 11 {hh:mm}
  0.266666666666667,                      !- Value Until Time 11
  15:00,                                  !- Time 12 {hh:mm}
  0.285714285714286,                      !- Value Until Time 12
  16:00,                                  !- Time 13 {hh:mm}
  0.333333333333333,                      !- Value Until Time 13
  17:00,                                  !- Time 14 {hh:mm}
  0.419047619047619,                      !- Value Until Time 14
  18:00,                                  !- Time 15 {hh:mm}
  0.533333333333333,                      !- Value Until Time 15
  19:00,                                  !- Time 16 {hh:mm}
  0.609523809523809,                      !- Value Until Time 16
  20:00,                                  !- Time 17 {hh:mm}
  0.647619047619048,                      !- Value Until Time 17
  21:00,                                  !- Time 18 {hh:mm}
  0.666666666666667,                      !- Value Until Time 18
  22:00,                                  !- Time 19 {hh:mm}
  0.619047619047619,                      !- Value Until Time 19
  23:00,                                  !- Time 20 {hh:mm}
  0.533333333333333,                      !- Value Until Time 20
  24:00,                                  !- Time 21 {hh:mm}
  0.447619047619048;                      !- Value Until Time 21

Schedule:Day:Interval,
  exterior lighting schedule day 6,       !- Name
  Fractional,                             !- Schedule Type Limits Name
  No,                                     !- Interpolate to Timestep
  01:00,                                  !- Time 1 {hh:mm}
  0.39047619047619,                       !- Value Until Time 1
  03:00,                                  !- Time 2 {hh:mm}
  0.361190476190476,                      !- Value Until Time 2
  05:00,                                  !- Time 3 {hh:mm}
  0.341666666666667,                      !- Value Until Time 3
  06:00,                                  !- Time 4 {hh:mm}
  0.380714285714286,                      !- Value Until Time 4
  07:00,                                  !- Time 5 {hh:mm}
  0.429523809523809,                      !- Value Until Time 5
  08:00,                                  !- Time 6 {hh:mm}
  0.400238095238095,                      !- Value Until Time 6
  09:00,                                  !- Time 7 {hh:mm}
  0.302619047619048,                      !- Value Until Time 7
  10:00,                                  !- Time 8 {hh:mm}
  0.244047619047619,                      !- Value Until Time 8
  12:00,                                  !- Time 9 {hh:mm}
  0.234285714285714,                      !- Value Until Time 9
  13:00,                                  !- Time 10 {hh:mm}
  0.244047619047619,                      !- Value Until Time 10
  14:00,                                  !- Time 11 {hh:mm}
  0.273333333333333,                      !- Value Until Time 11
  15:00,                                  !- Time 12 {hh:mm}
  0.292857142857143,                      !- Value Until Time 12
  16:00,                                  !- Time 13 {hh:mm}
  0.341666666666667,                      !- Value Until Time 13
  17:00,                                  !- Time 14 {hh:mm}
  0.429523809523809,                      !- Value Until Time 14
  18:00,                                  !- Time 15 {hh:mm}
  0.546666666666667,                      !- Value Until Time 15
  19:00,                                  !- Time 16 {hh:mm}
  0.624761904761905,                      !- Value Until Time 16
  20:00,                                  !- Time 17 {hh:mm}
  0.663809523809524,                      !- Value Until Time 17
  21:00,                                  !- Time 18 {hh:mm}
  0.683333333333333,                      !- Value Until Time 18
  22:00,                                  !- Time 19 {hh:mm}
  0.634523809523809,                      !- Value Until Time 19
  23:00,                                  !- Time 20 {hh:mm}
  0.546666666666667,                      !- Value Until Time 20
  24:00,                                  !- Time 21 {hh:mm}
  0.458809523809524;                      !- Value Until Time 21

Schedule:Day:Interval,
  exterior lighting schedule day 7,       !- Name
  Fractional,                             !- Schedule Type Limits Name
  No,                                     !- Interpolate to Timestep
  01:00,                                  !- Time 1 {hh:mm}
  0.419047619047619,                      !- Value Until Time 1
  03:00,                                  !- Time 2 {hh:mm}
  0.387619047619048,                      !- Value Until Time 2
  05:00,                                  !- Time 3 {hh:mm}
  0.366666666666667,                      !- Value Until Time 3
  06:00,                                  !- Time 4 {hh:mm}
  0.408571428571429,                      !- Value Until Time 4
  07:00,                                  !- Time 5 {hh:mm}
  0.460952380952381,                      !- Value Until Time 5
  08:00,                                  !- Time 6 {hh:mm}
  0.42952380952381,                       !- Value Until Time 6
  09:00,                                  !- Time 7 {hh:mm}
  0.324761904761905,                      !- Value Until Time 7
  10:00,                                  !- Time 8 {hh:mm}
  0.261904761904762,                      !- Value Until Time 8
  12:00,                                  !- Time 9 {hh:mm}
  0.251428571428571,                      !- Value Until Time 9
  13:00,                                  !- Time 10 {hh:mm}
  0.261904761904762,                      !- Value Until Time 10
  14:00,                                  !- Time 11 {hh:mm}
  0.293333333333333,                      !- Value Until Time 11
  15:00,                                  !- Time 12 {hh:mm}
  0.314285714285714,                      !- Value Until Time 12
  16:00,                                  !- Time 13 {hh:mm}
  0.366666666666667,                      !- Value Until Time 13
  17:00,                                  !- Time 14 {hh:mm}
  0.460952380952381,                      !- Value Until Time 14
  18:00,                                  !- Time 15 {hh:mm}
  0.586666666666667,                      !- Value Until Time 15
  19:00,                                  !- Time 16 {hh:mm}
  0.67047619047619,                       !- Value Until Time 16
  20:00,                                  !- Time 17 {hh:mm}
  0.712380952380952,                      !- Value Until Time 17
  21:00,                                  !- Time 18 {hh:mm}
  0.733333333333333,                      !- Value Until Time 18
  22:00,                                  !- Time 19 {hh:mm}
  0.680952380952381,                      !- Value Until Time 19
  23:00,                                  !- Time 20 {hh:mm}
  0.586666666666667,                      !- Value Until Time 20
  24:00,                                  !- Time 21 {hh:mm}
  0.492380952380952;                      !- Value Until Time 21

Schedule:Day:Interval,
  exterior lighting schedule day 8,       !- Name
  Fractional,                             !- Schedule Type Limits Name
  No,                                     !- Interpolate to Timestep
  01:00,                                  !- Time 1 {hh:mm}
  0.466666666666667,                      !- Value Until Time 1
  03:00,                                  !- Time 2 {hh:mm}
  0.431666666666667,                      !- Value Until Time 2
  05:00,                                  !- Time 3 {hh:mm}
  0.408333333333333,                      !- Value Until Time 3
  06:00,                                  !- Time 4 {hh:mm}
  0.455,                                  !- Value Until Time 4
  07:00,                                  !- Time 5 {hh:mm}
  0.513333333333333,                      !- Value Until Time 5
  08:00,                                  !- Time 6 {hh:mm}
  0.478333333333333,                      !- Value Until Time 6
  09:00,                                  !- Time 7 {hh:mm}
  0.361666666666667,                      !- Value Until Time 7
  10:00,                                  !- Time 8 {hh:mm}
  0.291666666666667,                      !- Value Until Time 8
  12:00,                                  !- Time 9 {hh:mm}
  0.28,                                   !- Value Until Time 9
  13:00,                                  !- Time 10 {hh:mm}
  0.291666666666667,                      !- Value Until Time 10
  14:00,                                  !- Time 11 {hh:mm}
  0.326666666666667,                      !- Value Until Time 11
  15:00,                                  !- Time 12 {hh:mm}
  0.35,                                   !- Value Until Time 12
  16:00,                                  !- Time 13 {hh:mm}
  0.408333333333333,                      !- Value Until Time 13
  17:00,                                  !- Time 14 {hh:mm}
  0.513333333333333,                      !- Value Until Time 14
  18:00,                                  !- Time 15 {hh:mm}
  0.653333333333333,                      !- Value Until Time 15
  19:00,                                  !- Time 16 {hh:mm}
  0.746666666666667,                      !- Value Until Time 16
  20:00,                                  !- Time 17 {hh:mm}
  0.793333333333333,                      !- Value Until Time 17
  21:00,                                  !- Time 18 {hh:mm}
  0.816666666666667,                      !- Value Until Time 18
  22:00,                                  !- Time 19 {hh:mm}
  0.758333333333333,                      !- Value Until Time 19
  23:00,                                  !- Time 20 {hh:mm}
  0.653333333333333,                      !- Value Until Time 20
  24:00,                                  !- Time 21 {hh:mm}
  0.548333333333333;                      !- Value Until Time 21

Schedule:Day:Interval,
  exterior lighting schedule day 9,       !- Name
  Fractional,                             !- Schedule Type Limits Name
  No,                                     !- Interpolate to Timestep
  01:00,                                  !- Time 1 {hh:mm}
  0.50952380952381,                       !- Value Until Time 1
  03:00,                                  !- Time 2 {hh:mm}
  0.471309523809524,                      !- Value Until Time 2
  05:00,                                  !- Time 3 {hh:mm}
  0.445833333333333,                      !- Value Until Time 3
  06:00,                                  !- Time 4 {hh:mm}
  0.496785714285714,                      !- Value Until Time 4
  07:00,                                  !- Time 5 {hh:mm}
  0.56047619047619,                       !- Value Until Time 5
  08:00,                                  !- Time 6 {hh:mm}
  0.522261904761905,                      !- Value Until Time 6
  09:00,                                  !- Time 7 {hh:mm}
  0.394880952380952,                      !- Value Until Time 7
  10:00,                                  !- Time 8 {hh:mm}
  0.318452380952381,                      !- Value Until Time 8
  12:00,                                  !- Time 9 {hh:mm}
  0.305714285714286,                      !- Value Until Time 9
  13:00,                                  !- Time 10 {hh:mm}
  0.318452380952381,                      !- Value Until Time 10
  14:00,                                  !- Time 11 {hh:mm}
  0.356666666666667,                      !- Value Until Time 11
  15:00,                                  !- Time 12 {hh:mm}
  0.382142857142857,                      !- Value Until Time 12
  16:00,                                  !- Time 13 {hh:mm}
  0.445833333333333,                      !- Value Until Time 13
  17:00,                                  !- Time 14 {hh:mm}
  0.56047619047619,                       !- Value Until Time 14
  18:00,                                  !- Time 15 {hh:mm}
  0.713333333333333,                      !- Value Until Time 15
  19:00,                                  !- Time 16 {hh:mm}
  0.815238095238095,                      !- Value Until Time 16
  20:00,                                  !- Time 17 {hh:mm}
  0.866190476190476,                      !- Value Until Time 17
  21:00,                                  !- Time 18 {hh:mm}
  0.891666666666667,                      !- Value Until Time 18
  22:00,                                  !- Time 19 {hh:mm}
  0.82797619047619,                       !- Value Until Time 19
  23:00,                                  !- Time 20 {hh:mm}
  0.713333333333333,                      !- Value Until Time 20
  24:00,                                  !- Time 21 {hh:mm}
  0.598690476190476;                      !- Value Until Time 21

Schedule:Day:Interval,
  exterior lighting schedule default day, !- Name
  Fractional,                             !- Schedule Type Limits Name
  No,                                     !- Interpolate to Timestep
  24:00,                                  !- Time 1 {hh:mm}
  0;                                      !- Value Until Time 1

Schedule:Day:Interval,
  natural vent schedule day,              !- Name
  OnOff,                                  !- Schedule Type Limits Name
  No,                                     !- Interpolate to Timestep
  24:00,                                  !- Time 1 {hh:mm}
  1;                                      !- Value Until Time 1

Schedule:Day:Interval,
  natural vent schedule default day,      !- Name
  OnOff,                                  !- Schedule Type Limits Name
  No,                                     !- Interpolate to Timestep
  24:00,                                  !- Time 1 {hh:mm}
  0;                                      !- Value Until Time 1

Schedule:Week:Daily,
  cooling season schedule Week Rule - Jan1-May26, !- Name
  cooling season schedule day,            !- Sunday Schedule:Day Name
  cooling season schedule day,            !- Monday Schedule:Day Name
  cooling season schedule day,            !- Tuesday Schedule:Day Name
  cooling season schedule day,            !- Wednesday Schedule:Day Name
  cooling season schedule day,            !- Thursday Schedule:Day Name
  cooling season schedule day,            !- Friday Schedule:Day Name
  cooling season schedule day,            !- Saturday Schedule:Day Name
  cooling season schedule default day,    !- Holiday Schedule:Day Name
  cooling season schedule default day,    !- SummerDesignDay Schedule:Day Name
  cooling season schedule default day,    !- WinterDesignDay Schedule:Day Name
  cooling season schedule default day,    !- CustomDay1 Schedule:Day Name
  cooling season schedule default day;    !- CustomDay2 Schedule:Day Name

Schedule:Week:Daily,
  cooling season schedule Week Rule - May27-Jun2, !- Name
  cooling season schedule day,            !- Sunday Schedule:Day Name
  cooling season schedule day,            !- Monday Schedule:Day Name
  cooling season schedule day,            !- Tuesday Schedule:Day Name
  cooling season schedule day,            !- Wednesday Schedule:Day Name
  cooling season schedule day,            !- Thursday Schedule:Day Name
  cooling season schedule day 1,          !- Friday Schedule:Day Name
  cooling season schedule day 1,          !- Saturday Schedule:Day Name
  cooling season schedule default day,    !- Holiday Schedule:Day Name
  cooling season schedule default day,    !- SummerDesignDay Schedule:Day Name
  cooling season schedule default day,    !- WinterDesignDay Schedule:Day Name
  cooling season schedule default day,    !- CustomDay1 Schedule:Day Name
  cooling season schedule default day;    !- CustomDay2 Schedule:Day Name

Schedule:Week:Daily,
  cooling season schedule Week Rule - Jun3-Sep29, !- Name
  cooling season schedule day 1,          !- Sunday Schedule:Day Name
  cooling season schedule day 1,          !- Monday Schedule:Day Name
  cooling season schedule day 1,          !- Tuesday Schedule:Day Name
  cooling season schedule day 1,          !- Wednesday Schedule:Day Name
  cooling season schedule day 1,          !- Thursday Schedule:Day Name
  cooling season schedule day 1,          !- Friday Schedule:Day Name
  cooling season schedule day 1,          !- Saturday Schedule:Day Name
  cooling season schedule default day,    !- Holiday Schedule:Day Name
  cooling season schedule default day,    !- SummerDesignDay Schedule:Day Name
  cooling season schedule default day,    !- WinterDesignDay Schedule:Day Name
  cooling season schedule default day,    !- CustomDay1 Schedule:Day Name
  cooling season schedule default day;    !- CustomDay2 Schedule:Day Name

Schedule:Week:Daily,
  cooling season schedule Week Rule - Sep30-Oct6, !- Name
  cooling season schedule day 1,          !- Sunday Schedule:Day Name
  cooling season schedule day 2,          !- Monday Schedule:Day Name
  cooling season schedule day 2,          !- Tuesday Schedule:Day Name
  cooling season schedule day 2,          !- Wednesday Schedule:Day Name
  cooling season schedule day 2,          !- Thursday Schedule:Day Name
  cooling season schedule day 2,          !- Friday Schedule:Day Name
  cooling season schedule day 2,          !- Saturday Schedule:Day Name
  cooling season schedule default day,    !- Holiday Schedule:Day Name
  cooling season schedule default day,    !- SummerDesignDay Schedule:Day Name
  cooling season schedule default day,    !- WinterDesignDay Schedule:Day Name
  cooling season schedule default day,    !- CustomDay1 Schedule:Day Name
  cooling season schedule default day;    !- CustomDay2 Schedule:Day Name

Schedule:Week:Daily,
  cooling season schedule Week Rule - Oct7-Dec31, !- Name
  cooling season schedule day 2,          !- Sunday Schedule:Day Name
  cooling season schedule day 2,          !- Monday Schedule:Day Name
  cooling season schedule day 2,          !- Tuesday Schedule:Day Name
  cooling season schedule day 2,          !- Wednesday Schedule:Day Name
  cooling season schedule day 2,          !- Thursday Schedule:Day Name
  cooling season schedule day 2,          !- Friday Schedule:Day Name
  cooling season schedule day 2,          !- Saturday Schedule:Day Name
  cooling season schedule default day,    !- Holiday Schedule:Day Name
  cooling season schedule default day,    !- SummerDesignDay Schedule:Day Name
  cooling season schedule default day,    !- WinterDesignDay Schedule:Day Name
  cooling season schedule default day,    !- CustomDay1 Schedule:Day Name
  cooling season schedule default day;    !- CustomDay2 Schedule:Day Name

Schedule:Year,
  cooling season schedule,                !- Name
  Fractional,                             !- Schedule Type Limits Name
  cooling season schedule Week Rule - Jan1-May26, !- Schedule:Week Name 1
  1,                                      !- Start Month 1
  1,                                      !- Start Day 1
  5,                                      !- End Month 1
  26,                                     !- End Day 1
  cooling season schedule Week Rule - May27-Jun2, !- Schedule:Week Name 2
  5,                                      !- Start Month 2
  27,                                     !- Start Day 2
  6,                                      !- End Month 2
  2,                                      !- End Day 2
  cooling season schedule Week Rule - Jun3-Sep29, !- Schedule:Week Name 3
  6,                                      !- Start Month 3
  3,                                      !- Start Day 3
  9,                                      !- End Month 3
  29,                                     !- End Day 3
  cooling season schedule Week Rule - Sep30-Oct6, !- Schedule:Week Name 4
  9,                                      !- Start Month 4
  30,                                     !- Start Day 4
  10,                                     !- End Month 4
  6,                                      !- End Day 4
  cooling season schedule Week Rule - Oct7-Dec31, !- Schedule:Week Name 5
  10,                                     !- Start Month 5
  7,                                      !- Start Day 5
  12,                                     !- End Month 5
  31;                                     !- End Day 5

Schedule:Week:Daily,
  exterior lighting schedule Week Rule - Jan1-Jan27, !- Name
  exterior lighting schedule day,         !- Sunday Schedule:Day Name
  exterior lighting schedule day,         !- Monday Schedule:Day Name
  exterior lighting schedule day,         !- Tuesday Schedule:Day Name
  exterior lighting schedule day,         !- Wednesday Schedule:Day Name
  exterior lighting schedule day,         !- Thursday Schedule:Day Name
  exterior lighting schedule day,         !- Friday Schedule:Day Name
  exterior lighting schedule day,         !- Saturday Schedule:Day Name
  exterior lighting schedule default day, !- Holiday Schedule:Day Name
  exterior lighting schedule default day, !- SummerDesignDay Schedule:Day Name
  exterior lighting schedule default day, !- WinterDesignDay Schedule:Day Name
  exterior lighting schedule default day, !- CustomDay1 Schedule:Day Name
  exterior lighting schedule default day; !- CustomDay2 Schedule:Day Name

Schedule:Week:Daily,
  exterior lighting schedule Week Rule - Jan28-Feb3, !- Name
  exterior lighting schedule day,         !- Sunday Schedule:Day Name
  exterior lighting schedule day,         !- Monday Schedule:Day Name
  exterior lighting schedule day,         !- Tuesday Schedule:Day Name
  exterior lighting schedule day,         !- Wednesday Schedule:Day Name
  exterior lighting schedule day 1,       !- Thursday Schedule:Day Name
  exterior lighting schedule day 1,       !- Friday Schedule:Day Name
  exterior lighting schedule day 1,       !- Saturday Schedule:Day Name
  exterior lighting schedule default day, !- Holiday Schedule:Day Name
  exterior lighting schedule default day, !- SummerDesignDay Schedule:Day Name
  exterior lighting schedule default day, !- WinterDesignDay Schedule:Day Name
  exterior lighting schedule default day, !- CustomDay1 Schedule:Day Name
  exterior lighting schedule default day; !- CustomDay2 Schedule:Day Name

Schedule:Week:Daily,
  exterior lighting schedule Week Rule - Feb4-Feb24, !- Name
  exterior lighting schedule day 1,       !- Sunday Schedule:Day Name
  exterior lighting schedule day 1,       !- Monday Schedule:Day Name
  exterior lighting schedule day 1,       !- Tuesday Schedule:Day Name
  exterior lighting schedule day 1,       !- Wednesday Schedule:Day Name
  exterior lighting schedule day 1,       !- Thursday Schedule:Day Name
  exterior lighting schedule day 1,       !- Friday Schedule:Day Name
  exterior lighting schedule day 1,       !- Saturday Schedule:Day Name
  exterior lighting schedule default day, !- Holiday Schedule:Day Name
  exterior lighting schedule default day, !- SummerDesignDay Schedule:Day Name
  exterior lighting schedule default day, !- WinterDesignDay Schedule:Day Name
  exterior lighting schedule default day, !- CustomDay1 Schedule:Day Name
  exterior lighting schedule default day; !- CustomDay2 Schedule:Day Name

Schedule:Week:Daily,
  exterior lighting schedule Week Rule - Feb25-Mar3, !- Name
  exterior lighting schedule day 1,       !- Sunday Schedule:Day Name
  exterior lighting schedule day 1,       !- Monday Schedule:Day Name
  exterior lighting schedule day 1,       !- Tuesday Schedule:Day Name
  exterior lighting schedule day 1,       !- Wednesday Schedule:Day Name
  exterior lighting schedule day 2,       !- Thursday Schedule:Day Name
  exterior lighting schedule day 2,       !- Friday Schedule:Day Name
  exterior lighting schedule day 2,       !- Saturday Schedule:Day Name
  exterior lighting schedule default day, !- Holiday Schedule:Day Name
  exterior lighting schedule default day, !- SummerDesignDay Schedule:Day Name
  exterior lighting schedule default day, !- WinterDesignDay Schedule:Day Name
  exterior lighting schedule default day, !- CustomDay1 Schedule:Day Name
  exterior lighting schedule default day; !- CustomDay2 Schedule:Day Name

Schedule:Week:Daily,
  exterior lighting schedule Week Rule - Mar4-Mar31, !- Name
  exterior lighting schedule day 2,       !- Sunday Schedule:Day Name
  exterior lighting schedule day 2,       !- Monday Schedule:Day Name
  exterior lighting schedule day 2,       !- Tuesday Schedule:Day Name
  exterior lighting schedule day 2,       !- Wednesday Schedule:Day Name
  exterior lighting schedule day 2,       !- Thursday Schedule:Day Name
  exterior lighting schedule day 2,       !- Friday Schedule:Day Name
  exterior lighting schedule day 2,       !- Saturday Schedule:Day Name
  exterior lighting schedule default day, !- Holiday Schedule:Day Name
  exterior lighting schedule default day, !- SummerDesignDay Schedule:Day Name
  exterior lighting schedule default day, !- WinterDesignDay Schedule:Day Name
  exterior lighting schedule default day, !- CustomDay1 Schedule:Day Name
  exterior lighting schedule default day; !- CustomDay2 Schedule:Day Name

Schedule:Week:Daily,
  exterior lighting schedule Week Rule - Apr1-Apr28, !- Name
  exterior lighting schedule day 3,       !- Sunday Schedule:Day Name
  exterior lighting schedule day 3,       !- Monday Schedule:Day Name
  exterior lighting schedule day 3,       !- Tuesday Schedule:Day Name
  exterior lighting schedule day 3,       !- Wednesday Schedule:Day Name
  exterior lighting schedule day 3,       !- Thursday Schedule:Day Name
  exterior lighting schedule day 3,       !- Friday Schedule:Day Name
  exterior lighting schedule day 3,       !- Saturday Schedule:Day Name
  exterior lighting schedule default day, !- Holiday Schedule:Day Name
  exterior lighting schedule default day, !- SummerDesignDay Schedule:Day Name
  exterior lighting schedule default day, !- WinterDesignDay Schedule:Day Name
  exterior lighting schedule default day, !- CustomDay1 Schedule:Day Name
  exterior lighting schedule default day; !- CustomDay2 Schedule:Day Name

Schedule:Week:Daily,
  exterior lighting schedule Week Rule - Apr29-May5, !- Name
  exterior lighting schedule day 3,       !- Sunday Schedule:Day Name
  exterior lighting schedule day 3,       !- Monday Schedule:Day Name
  exterior lighting schedule day 4,       !- Tuesday Schedule:Day Name
  exterior lighting schedule day 4,       !- Wednesday Schedule:Day Name
  exterior lighting schedule day 4,       !- Thursday Schedule:Day Name
  exterior lighting schedule day 4,       !- Friday Schedule:Day Name
  exterior lighting schedule day 4,       !- Saturday Schedule:Day Name
  exterior lighting schedule default day, !- Holiday Schedule:Day Name
  exterior lighting schedule default day, !- SummerDesignDay Schedule:Day Name
  exterior lighting schedule default day, !- WinterDesignDay Schedule:Day Name
  exterior lighting schedule default day, !- CustomDay1 Schedule:Day Name
  exterior lighting schedule default day; !- CustomDay2 Schedule:Day Name

Schedule:Week:Daily,
  exterior lighting schedule Week Rule - May6-May26, !- Name
  exterior lighting schedule day 4,       !- Sunday Schedule:Day Name
  exterior lighting schedule day 4,       !- Monday Schedule:Day Name
  exterior lighting schedule day 4,       !- Tuesday Schedule:Day Name
  exterior lighting schedule day 4,       !- Wednesday Schedule:Day Name
  exterior lighting schedule day 4,       !- Thursday Schedule:Day Name
  exterior lighting schedule day 4,       !- Friday Schedule:Day Name
  exterior lighting schedule day 4,       !- Saturday Schedule:Day Name
  exterior lighting schedule default day, !- Holiday Schedule:Day Name
  exterior lighting schedule default day, !- SummerDesignDay Schedule:Day Name
  exterior lighting schedule default day, !- WinterDesignDay Schedule:Day Name
  exterior lighting schedule default day, !- CustomDay1 Schedule:Day Name
  exterior lighting schedule default day; !- CustomDay2 Schedule:Day Name

Schedule:Week:Daily,
  exterior lighting schedule Week Rule - May27-Jun2, !- Name
  exterior lighting schedule day 4,       !- Sunday Schedule:Day Name
  exterior lighting schedule day 4,       !- Monday Schedule:Day Name
  exterior lighting schedule day 4,       !- Tuesday Schedule:Day Name
  exterior lighting schedule day 4,       !- Wednesday Schedule:Day Name
  exterior lighting schedule day 4,       !- Thursday Schedule:Day Name
  exterior lighting schedule day 5,       !- Friday Schedule:Day Name
  exterior lighting schedule day 5,       !- Saturday Schedule:Day Name
  exterior lighting schedule default day, !- Holiday Schedule:Day Name
  exterior lighting schedule default day, !- SummerDesignDay Schedule:Day Name
  exterior lighting schedule default day, !- WinterDesignDay Schedule:Day Name
  exterior lighting schedule default day, !- CustomDay1 Schedule:Day Name
  exterior lighting schedule default day; !- CustomDay2 Schedule:Day Name

Schedule:Week:Daily,
  exterior lighting schedule Week Rule - Jun3-Jun30, !- Name
  exterior lighting schedule day 5,       !- Sunday Schedule:Day Name
  exterior lighting schedule day 5,       !- Monday Schedule:Day Name
  exterior lighting schedule day 5,       !- Tuesday Schedule:Day Name
  exterior lighting schedule day 5,       !- Wednesday Schedule:Day Name
  exterior lighting schedule day 5,       !- Thursday Schedule:Day Name
  exterior lighting schedule day 5,       !- Friday Schedule:Day Name
  exterior lighting schedule day 5,       !- Saturday Schedule:Day Name
  exterior lighting schedule default day, !- Holiday Schedule:Day Name
  exterior lighting schedule default day, !- SummerDesignDay Schedule:Day Name
  exterior lighting schedule default day, !- WinterDesignDay Schedule:Day Name
  exterior lighting schedule default day, !- CustomDay1 Schedule:Day Name
  exterior lighting schedule default day; !- CustomDay2 Schedule:Day Name

Schedule:Week:Daily,
  exterior lighting schedule Week Rule - Jul1-Jul28, !- Name
  exterior lighting schedule day 6,       !- Sunday Schedule:Day Name
  exterior lighting schedule day 6,       !- Monday Schedule:Day Name
  exterior lighting schedule day 6,       !- Tuesday Schedule:Day Name
  exterior lighting schedule day 6,       !- Wednesday Schedule:Day Name
  exterior lighting schedule day 6,       !- Thursday Schedule:Day Name
  exterior lighting schedule day 6,       !- Friday Schedule:Day Name
  exterior lighting schedule day 6,       !- Saturday Schedule:Day Name
  exterior lighting schedule default day, !- Holiday Schedule:Day Name
  exterior lighting schedule default day, !- SummerDesignDay Schedule:Day Name
  exterior lighting schedule default day, !- WinterDesignDay Schedule:Day Name
  exterior lighting schedule default day, !- CustomDay1 Schedule:Day Name
  exterior lighting schedule default day; !- CustomDay2 Schedule:Day Name

Schedule:Week:Daily,
  exterior lighting schedule Week Rule - Jul29-Aug4, !- Name
  exterior lighting schedule day 6,       !- Sunday Schedule:Day Name
  exterior lighting schedule day 6,       !- Monday Schedule:Day Name
  exterior lighting schedule day 6,       !- Tuesday Schedule:Day Name
  exterior lighting schedule day 7,       !- Wednesday Schedule:Day Name
  exterior lighting schedule day 7,       !- Thursday Schedule:Day Name
  exterior lighting schedule day 7,       !- Friday Schedule:Day Name
  exterior lighting schedule day 7,       !- Saturday Schedule:Day Name
  exterior lighting schedule default day, !- Holiday Schedule:Day Name
  exterior lighting schedule default day, !- SummerDesignDay Schedule:Day Name
  exterior lighting schedule default day, !- WinterDesignDay Schedule:Day Name
  exterior lighting schedule default day, !- CustomDay1 Schedule:Day Name
  exterior lighting schedule default day; !- CustomDay2 Schedule:Day Name

Schedule:Week:Daily,
  exterior lighting schedule Week Rule - Aug5-Aug25, !- Name
  exterior lighting schedule day 7,       !- Sunday Schedule:Day Name
  exterior lighting schedule day 7,       !- Monday Schedule:Day Name
  exterior lighting schedule day 7,       !- Tuesday Schedule:Day Name
  exterior lighting schedule day 7,       !- Wednesday Schedule:Day Name
  exterior lighting schedule day 7,       !- Thursday Schedule:Day Name
  exterior lighting schedule day 7,       !- Friday Schedule:Day Name
  exterior lighting schedule day 7,       !- Saturday Schedule:Day Name
  exterior lighting schedule default day, !- Holiday Schedule:Day Name
  exterior lighting schedule default day, !- SummerDesignDay Schedule:Day Name
  exterior lighting schedule default day, !- WinterDesignDay Schedule:Day Name
  exterior lighting schedule default day, !- CustomDay1 Schedule:Day Name
  exterior lighting schedule default day; !- CustomDay2 Schedule:Day Name

Schedule:Week:Daily,
  exterior lighting schedule Week Rule - Aug26-Sep1, !- Name
  exterior lighting schedule day 7,       !- Sunday Schedule:Day Name
  exterior lighting schedule day 7,       !- Monday Schedule:Day Name
  exterior lighting schedule day 7,       !- Tuesday Schedule:Day Name
  exterior lighting schedule day 7,       !- Wednesday Schedule:Day Name
  exterior lighting schedule day 7,       !- Thursday Schedule:Day Name
  exterior lighting schedule day 7,       !- Friday Schedule:Day Name
  exterior lighting schedule day 8,       !- Saturday Schedule:Day Name
  exterior lighting schedule default day, !- Holiday Schedule:Day Name
  exterior lighting schedule default day, !- SummerDesignDay Schedule:Day Name
  exterior lighting schedule default day, !- WinterDesignDay Schedule:Day Name
  exterior lighting schedule default day, !- CustomDay1 Schedule:Day Name
  exterior lighting schedule default day; !- CustomDay2 Schedule:Day Name

Schedule:Week:Daily,
  exterior lighting schedule Week Rule - Sep2-Sep29, !- Name
  exterior lighting schedule day 8,       !- Sunday Schedule:Day Name
  exterior lighting schedule day 8,       !- Monday Schedule:Day Name
  exterior lighting schedule day 8,       !- Tuesday Schedule:Day Name
  exterior lighting schedule day 8,       !- Wednesday Schedule:Day Name
  exterior lighting schedule day 8,       !- Thursday Schedule:Day Name
  exterior lighting schedule day 8,       !- Friday Schedule:Day Name
  exterior lighting schedule day 8,       !- Saturday Schedule:Day Name
  exterior lighting schedule default day, !- Holiday Schedule:Day Name
  exterior lighting schedule default day, !- SummerDesignDay Schedule:Day Name
  exterior lighting schedule default day, !- WinterDesignDay Schedule:Day Name
  exterior lighting schedule default day, !- CustomDay1 Schedule:Day Name
  exterior lighting schedule default day; !- CustomDay2 Schedule:Day Name

Schedule:Week:Daily,
  exterior lighting schedule Week Rule - Sep30-Oct6, !- Name
  exterior lighting schedule day 8,       !- Sunday Schedule:Day Name
  exterior lighting schedule day 9,       !- Monday Schedule:Day Name
  exterior lighting schedule day 9,       !- Tuesday Schedule:Day Name
  exterior lighting schedule day 9,       !- Wednesday Schedule:Day Name
  exterior lighting schedule day 9,       !- Thursday Schedule:Day Name
  exterior lighting schedule day 9,       !- Friday Schedule:Day Name
  exterior lighting schedule day 9,       !- Saturday Schedule:Day Name
  exterior lighting schedule default day, !- Holiday Schedule:Day Name
  exterior lighting schedule default day, !- SummerDesignDay Schedule:Day Name
  exterior lighting schedule default day, !- WinterDesignDay Schedule:Day Name
  exterior lighting schedule default day, !- CustomDay1 Schedule:Day Name
  exterior lighting schedule default day; !- CustomDay2 Schedule:Day Name

Schedule:Week:Daily,
  exterior lighting schedule Week Rule - Oct7-Oct27, !- Name
  exterior lighting schedule day 9,       !- Sunday Schedule:Day Name
  exterior lighting schedule day 9,       !- Monday Schedule:Day Name
  exterior lighting schedule day 9,       !- Tuesday Schedule:Day Name
  exterior lighting schedule day 9,       !- Wednesday Schedule:Day Name
  exterior lighting schedule day 9,       !- Thursday Schedule:Day Name
  exterior lighting schedule day 9,       !- Friday Schedule:Day Name
  exterior lighting schedule day 9,       !- Saturday Schedule:Day Name
  exterior lighting schedule default day, !- Holiday Schedule:Day Name
  exterior lighting schedule default day, !- SummerDesignDay Schedule:Day Name
  exterior lighting schedule default day, !- WinterDesignDay Schedule:Day Name
  exterior lighting schedule default day, !- CustomDay1 Schedule:Day Name
  exterior lighting schedule default day; !- CustomDay2 Schedule:Day Name

Schedule:Week:Daily,
  exterior lighting schedule Week Rule - Oct28-Nov3, !- Name
  exterior lighting schedule day 9,       !- Sunday Schedule:Day Name
  exterior lighting schedule day 9,       !- Monday Schedule:Day Name
  exterior lighting schedule day 9,       !- Tuesday Schedule:Day Name
  exterior lighting schedule day 9,       !- Wednesday Schedule:Day Name
  exterior lighting schedule day 10,      !- Thursday Schedule:Day Name
  exterior lighting schedule day 10,      !- Friday Schedule:Day Name
  exterior lighting schedule day 10,      !- Saturday Schedule:Day Name
  exterior lighting schedule default day, !- Holiday Schedule:Day Name
  exterior lighting schedule default day, !- SummerDesignDay Schedule:Day Name
  exterior lighting schedule default day, !- WinterDesignDay Schedule:Day Name
  exterior lighting schedule default day, !- CustomDay1 Schedule:Day Name
  exterior lighting schedule default day; !- CustomDay2 Schedule:Day Name

Schedule:Week:Daily,
  exterior lighting schedule Week Rule - Nov4-Nov24, !- Name
  exterior lighting schedule day 10,      !- Sunday Schedule:Day Name
  exterior lighting schedule day 10,      !- Monday Schedule:Day Name
  exterior lighting schedule day 10,      !- Tuesday Schedule:Day Name
  exterior lighting schedule day 10,      !- Wednesday Schedule:Day Name
  exterior lighting schedule day 10,      !- Thursday Schedule:Day Name
  exterior lighting schedule day 10,      !- Friday Schedule:Day Name
  exterior lighting schedule day 10,      !- Saturday Schedule:Day Name
  exterior lighting schedule default day, !- Holiday Schedule:Day Name
  exterior lighting schedule default day, !- SummerDesignDay Schedule:Day Name
  exterior lighting schedule default day, !- WinterDesignDay Schedule:Day Name
  exterior lighting schedule default day, !- CustomDay1 Schedule:Day Name
  exterior lighting schedule default day; !- CustomDay2 Schedule:Day Name

Schedule:Week:Daily,
  exterior lighting schedule Week Rule - Nov25-Dec1, !- Name
  exterior lighting schedule day 10,      !- Sunday Schedule:Day Name
  exterior lighting schedule day 10,      !- Monday Schedule:Day Name
  exterior lighting schedule day 10,      !- Tuesday Schedule:Day Name
  exterior lighting schedule day 10,      !- Wednesday Schedule:Day Name
  exterior lighting schedule day 10,      !- Thursday Schedule:Day Name
  exterior lighting schedule day 10,      !- Friday Schedule:Day Name
  exterior lighting schedule day 11,      !- Saturday Schedule:Day Name
  exterior lighting schedule default day, !- Holiday Schedule:Day Name
  exterior lighting schedule default day, !- SummerDesignDay Schedule:Day Name
  exterior lighting schedule default day, !- WinterDesignDay Schedule:Day Name
  exterior lighting schedule default day, !- CustomDay1 Schedule:Day Name
  exterior lighting schedule default day; !- CustomDay2 Schedule:Day Name

Schedule:Week:Daily,
  exterior lighting schedule Week Rule - Dec2-Dec31, !- Name
  exterior lighting schedule day 11,      !- Sunday Schedule:Day Name
  exterior lighting schedule day 11,      !- Monday Schedule:Day Name
  exterior lighting schedule day 11,      !- Tuesday Schedule:Day Name
  exterior lighting schedule day 11,      !- Wednesday Schedule:Day Name
  exterior lighting schedule day 11,      !- Thursday Schedule:Day Name
  exterior lighting schedule day 11,      !- Friday Schedule:Day Name
  exterior lighting schedule day 11,      !- Saturday Schedule:Day Name
  exterior lighting schedule default day, !- Holiday Schedule:Day Name
  exterior lighting schedule default day, !- SummerDesignDay Schedule:Day Name
  exterior lighting schedule default day, !- WinterDesignDay Schedule:Day Name
  exterior lighting schedule default day, !- CustomDay1 Schedule:Day Name
  exterior lighting schedule default day; !- CustomDay2 Schedule:Day Name

Schedule:Year,
  exterior lighting schedule,             !- Name
  Fractional,                             !- Schedule Type Limits Name
  exterior lighting schedule Week Rule - Jan1-Jan27, !- Schedule:Week Name 1
  1,                                      !- Start Month 1
  1,                                      !- Start Day 1
  1,                                      !- End Month 1
  27,                                     !- End Day 1
  exterior lighting schedule Week Rule - Jan28-Feb3, !- Schedule:Week Name 2
  1,                                      !- Start Month 2
  28,                                     !- Start Day 2
  2,                                      !- End Month 2
  3,                                      !- End Day 2
  exterior lighting schedule Week Rule - Feb4-Feb24, !- Schedule:Week Name 3
  2,                                      !- Start Month 3
  4,                                      !- Start Day 3
  2,                                      !- End Month 3
  24,                                     !- End Day 3
  exterior lighting schedule Week Rule - Feb25-Mar3, !- Schedule:Week Name 4
  2,                                      !- Start Month 4
  25,                                     !- Start Day 4
  3,                                      !- End Month 4
  3,                                      !- End Day 4
  exterior lighting schedule Week Rule - Mar4-Mar31, !- Schedule:Week Name 5
  3,                                      !- Start Month 5
  4,                                      !- Start Day 5
  3,                                      !- End Month 5
  31,                                     !- End Day 5
  exterior lighting schedule Week Rule - Apr1-Apr28, !- Schedule:Week Name 6
  4,                                      !- Start Month 6
  1,                                      !- Start Day 6
  4,                                      !- End Month 6
  28,                                     !- End Day 6
  exterior lighting schedule Week Rule - Apr29-May5, !- Schedule:Week Name 7
  4,                                      !- Start Month 7
  29,                                     !- Start Day 7
  5,                                      !- End Month 7
  5,                                      !- End Day 7
  exterior lighting schedule Week Rule - May6-May26, !- Schedule:Week Name 8
  5,                                      !- Start Month 8
  6,                                      !- Start Day 8
  5,                                      !- End Month 8
  26,                                     !- End Day 8
  exterior lighting schedule Week Rule - May27-Jun2, !- Schedule:Week Name 9
  5,                                      !- Start Month 9
  27,                                     !- Start Day 9
  6,                                      !- End Month 9
  2,                                      !- End Day 9
  exterior lighting schedule Week Rule - Jun3-Jun30, !- Schedule:Week Name 10
  6,                                      !- Start Month 10
  3,                                      !- Start Day 10
  6,                                      !- End Month 10
  30,                                     !- End Day 10
  exterior lighting schedule Week Rule - Jul1-Jul28, !- Schedule:Week Name 11
  7,                                      !- Start Month 11
  1,                                      !- Start Day 11
  7,                                      !- End Month 11
  28,                                     !- End Day 11
  exterior lighting schedule Week Rule - Jul29-Aug4, !- Schedule:Week Name 12
  7,                                      !- Start Month 12
  29,                                     !- Start Day 12
  8,                                      !- End Month 12
  4,                                      !- End Day 12
  exterior lighting schedule Week Rule - Aug5-Aug25, !- Schedule:Week Name 13
  8,                                      !- Start Month 13
  5,                                      !- Start Day 13
  8,                                      !- End Month 13
  25,                                     !- End Day 13
  exterior lighting schedule Week Rule - Aug26-Sep1, !- Schedule:Week Name 14
  8,                                      !- Start Month 14
  26,                                     !- Start Day 14
  9,                                      !- End Month 14
  1,                                      !- End Day 14
  exterior lighting schedule Week Rule - Sep2-Sep29, !- Schedule:Week Name 15
  9,                                      !- Start Month 15
  2,                                      !- Start Day 15
  9,                                      !- End Month 15
  29,                                     !- End Day 15
  exterior lighting schedule Week Rule - Sep30-Oct6, !- Schedule:Week Name 16
  9,                                      !- Start Month 16
  30,                                     !- Start Day 16
  10,                                     !- End Month 16
  6,                                      !- End Day 16
  exterior lighting schedule Week Rule - Oct7-Oct27, !- Schedule:Week Name 17
  10,                                     !- Start Month 17
  7,                                      !- Start Day 17
  10,                                     !- End Month 17
  27,                                     !- End Day 17
  exterior lighting schedule Week Rule - Oct28-Nov3, !- Schedule:Week Name 18
  10,                                     !- Start Month 18
  28,                                     !- Start Day 18
  11,                                     !- End Month 18
  3,                                      !- End Day 18
  exterior lighting schedule Week Rule - Nov4-Nov24, !- Schedule:Week Name 19
  11,                                     !- Start Month 19
  4,                                      !- Start Day 19
  11,                                     !- End Month 19
  24,                                     !- End Day 19
  exterior lighting schedule Week Rule - Nov25-Dec1, !- Schedule:Week Name 20
  11,                                     !- Start Month 20
  25,                                     !- Start Day 20
  12,                                     !- End Month 20
  1,                                      !- End Day 20
  exterior lighting schedule Week Rule - Dec2-Dec31, !- Schedule:Week Name 21
  12,                                     !- Start Month 21
  2,                                      !- Start Day 21
  12,                                     !- End Month 21
  31;                                     !- End Day 21

Schedule:Week:Daily,
  natural vent schedule Week Rule - Jan1-Jan6, !- Name
  natural vent schedule day,              !- Sunday Schedule:Day Name
  natural vent schedule day,              !- Monday Schedule:Day Name
  natural vent schedule default day,      !- Tuesday Schedule:Day Name
  natural vent schedule day,              !- Wednesday Schedule:Day Name
  natural vent schedule default day,      !- Thursday Schedule:Day Name
  natural vent schedule day,              !- Friday Schedule:Day Name
  natural vent schedule default day,      !- Saturday Schedule:Day Name
  natural vent schedule default day,      !- Holiday Schedule:Day Name
  natural vent schedule default day,      !- SummerDesignDay Schedule:Day Name
  natural vent schedule default day,      !- WinterDesignDay Schedule:Day Name
  natural vent schedule default day,      !- CustomDay1 Schedule:Day Name
  natural vent schedule default day;      !- CustomDay2 Schedule:Day Name

Schedule:Week:Daily,
  natural vent schedule Week Rule - Jan7-Dec31, !- Name
  natural vent schedule default day,      !- Sunday Schedule:Day Name
  natural vent schedule day,              !- Monday Schedule:Day Name
  natural vent schedule default day,      !- Tuesday Schedule:Day Name
  natural vent schedule day,              !- Wednesday Schedule:Day Name
  natural vent schedule default day,      !- Thursday Schedule:Day Name
  natural vent schedule day,              !- Friday Schedule:Day Name
  natural vent schedule default day,      !- Saturday Schedule:Day Name
  natural vent schedule default day,      !- Holiday Schedule:Day Name
  natural vent schedule default day,      !- SummerDesignDay Schedule:Day Name
  natural vent schedule default day,      !- WinterDesignDay Schedule:Day Name
  natural vent schedule default day,      !- CustomDay1 Schedule:Day Name
  natural vent schedule default day;      !- CustomDay2 Schedule:Day Name

Schedule:Year,
  natural vent schedule,                  !- Name
  OnOff,                                  !- Schedule Type Limits Name
  natural vent schedule Week Rule - Jan1-Jan6, !- Schedule:Week Name 1
  1,                                      !- Start Month 1
  1,                                      !- Start Day 1
  1,                                      !- End Month 1
  6,                                      !- End Day 1
  natural vent schedule Week Rule - Jan7-Dec31, !- Schedule:Week Name 2
  1,                                      !- Start Month 2
  7,                                      !- Start Day 2
  12,                                     !- End Month 2
  31;                                     !- End Day 2

Schedule:Compact,
  mains temperature schedule,             !- Name
  Temperature,                            !- Schedule Type Limits Name
  Through: 01/01,                         !- Field 1
  For: AllDays,                           !- Field 2
  Until: 24:00,                           !- Field 3
  13.0633333333333,                       !- Field 4
  Through: 01/02,                         !- Field 5
  For: AllDays,                           !- Field 6
  Until: 24:00,                           !- Field 7
  13.0188888888889,                       !- Field 8
  Through: 01/03,                         !- Field 9
  For: AllDays,                           !- Field 10
  Until: 24:00,                           !- Field 11
  12.975,                                 !- Field 12
  Through: 01/04,                         !- Field 13
  For: AllDays,                           !- Field 14
  Until: 24:00,                           !- Field 15
  12.9327777777778,                       !- Field 16
  Through: 01/05,                         !- Field 17
  For: AllDays,                           !- Field 18
  Until: 24:00,                           !- Field 19
  12.8916666666667,                       !- Field 20
  Through: 01/06,                         !- Field 21
  For: AllDays,                           !- Field 22
  Until: 24:00,                           !- Field 23
  12.8516666666667,                       !- Field 24
  Through: 01/07,                         !- Field 25
  For: AllDays,                           !- Field 26
  Until: 24:00,                           !- Field 27
  12.8122222222222,                       !- Field 28
  Through: 01/08,                         !- Field 29
  For: AllDays,                           !- Field 30
  Until: 24:00,                           !- Field 31
  12.7744444444444,                       !- Field 32
  Through: 01/09,                         !- Field 33
  For: AllDays,                           !- Field 34
  Until: 24:00,                           !- Field 35
  12.7377777777778,                       !- Field 36
  Through: 01/10,                         !- Field 37
  For: AllDays,                           !- Field 38
  Until: 24:00,                           !- Field 39
  12.7016666666667,                       !- Field 40
  Through: 01/11,                         !- Field 41
  For: AllDays,                           !- Field 42
  Until: 24:00,                           !- Field 43
  12.6672222222222,                       !- Field 44
  Through: 01/12,                         !- Field 45
  For: AllDays,                           !- Field 46
  Until: 24:00,                           !- Field 47
  12.6338888888889,                       !- Field 48
  Through: 01/13,                         !- Field 49
  For: AllDays,                           !- Field 50
  Until: 24:00,                           !- Field 51
  12.6016666666667,                       !- Field 52
  Through: 01/14,                         !- Field 53
  For: AllDays,                           !- Field 54
  Until: 24:00,                           !- Field 55
  12.5705555555556,                       !- Field 56
  Through: 01/15,                         !- Field 57
  For: AllDays,                           !- Field 58
  Until: 24:00,                           !- Field 59
  12.5411111111111,                       !- Field 60
  Through: 01/16,                         !- Field 61
  For: AllDays,                           !- Field 62
  Until: 24:00,                           !- Field 63
  12.5122222222222,                       !- Field 64
  Through: 01/17,                         !- Field 65
  For: AllDays,                           !- Field 66
  Until: 24:00,                           !- Field 67
  12.485,                                 !- Field 68
  Through: 01/18,                         !- Field 69
  For: AllDays,                           !- Field 70
  Until: 24:00,                           !- Field 71
  12.4583333333333,                       !- Field 72
  Through: 01/19,                         !- Field 73
  For: AllDays,                           !- Field 74
  Until: 24:00,                           !- Field 75
  12.4333333333333,                       !- Field 76
  Through: 01/20,                         !- Field 77
  For: AllDays,                           !- Field 78
  Until: 24:00,                           !- Field 79
  12.41,                                  !- Field 80
  Through: 01/21,                         !- Field 81
  For: AllDays,                           !- Field 82
  Until: 24:00,                           !- Field 83
  12.3872222222222,                       !- Field 84
  Through: 01/22,                         !- Field 85
  For: AllDays,                           !- Field 86
  Until: 24:00,                           !- Field 87
  12.3661111111111,                       !- Field 88
  Through: 01/23,                         !- Field 89
  For: AllDays,                           !- Field 90
  Until: 24:00,                           !- Field 91
  12.3455555555556,                       !- Field 92
  Through: 01/24,                         !- Field 93
  For: AllDays,                           !- Field 94
  Until: 24:00,                           !- Field 95
  12.3272222222222,                       !- Field 96
  Through: 01/25,                         !- Field 97
  For: AllDays,                           !- Field 98
  Until: 24:00,                           !- Field 99
  12.3094444444444,                       !- Field 100
  Through: 01/26,                         !- Field 101
  For: AllDays,                           !- Field 102
  Until: 24:00,                           !- Field 103
  12.2933333333333,                       !- Field 104
  Through: 01/27,                         !- Field 105
  For: AllDays,                           !- Field 106
  Until: 24:00,                           !- Field 107
  12.2783333333333,                       !- Field 108
  Through: 01/28,                         !- Field 109
  For: AllDays,                           !- Field 110
  Until: 24:00,                           !- Field 111
  12.2644444444444,                       !- Field 112
  Through: 01/29,                         !- Field 113
  For: AllDays,                           !- Field 114
  Until: 24:00,                           !- Field 115
  12.2516666666667,                       !- Field 116
  Through: 01/30,                         !- Field 117
  For: AllDays,                           !- Field 118
  Until: 24:00,                           !- Field 119
  12.2405555555556,                       !- Field 120
  Through: 01/31,                         !- Field 121
  For: AllDays,                           !- Field 122
  Until: 24:00,                           !- Field 123
  12.2305555555556,                       !- Field 124
  Through: 02/01,                         !- Field 125
  For: AllDays,                           !- Field 126
  Until: 24:00,                           !- Field 127
  12.2222222222222,                       !- Field 128
  Through: 02/02,                         !- Field 129
  For: AllDays,                           !- Field 130
  Until: 24:00,                           !- Field 131
  12.215,                                 !- Field 132
  Through: 02/03,                         !- Field 133
  For: AllDays,                           !- Field 134
  Until: 24:00,                           !- Field 135
  12.2088888888889,                       !- Field 136
  Through: 02/04,                         !- Field 137
  For: AllDays,                           !- Field 138
  Until: 24:00,                           !- Field 139
  12.2038888888889,                       !- Field 140
  Through: 02/05,                         !- Field 141
  For: AllDays,                           !- Field 142
  Until: 24:00,                           !- Field 143
  12.2005555555556,                       !- Field 144
  Through: 02/06,                         !- Field 145
  For: AllDays,                           !- Field 146
  Until: 24:00,                           !- Field 147
  12.1983333333333,                       !- Field 148
  Through: 02/07,                         !- Field 149
  For: AllDays,                           !- Field 150
  Until: 24:00,                           !- Field 151
  12.1977777777778,                       !- Field 152
  Through: 02/08,                         !- Field 153
  For: AllDays,                           !- Field 154
  Until: 24:00,                           !- Field 155
  12.1977777777778,                       !- Field 156
  Through: 02/09,                         !- Field 157
  For: AllDays,                           !- Field 158
  Until: 24:00,                           !- Field 159
  12.2,                                   !- Field 160
  Through: 02/10,                         !- Field 161
  For: AllDays,                           !- Field 162
  Until: 24:00,                           !- Field 163
  12.2027777777778,                       !- Field 164
  Through: 02/11,                         !- Field 165
  For: AllDays,                           !- Field 166
  Until: 24:00,                           !- Field 167
  12.2072222222222,                       !- Field 168
  Through: 02/12,                         !- Field 169
  For: AllDays,                           !- Field 170
  Until: 24:00,                           !- Field 171
  12.2127777777778,                       !- Field 172
  Through: 02/13,                         !- Field 173
  For: AllDays,                           !- Field 174
  Until: 24:00,                           !- Field 175
  12.2194444444444,                       !- Field 176
  Through: 02/14,                         !- Field 177
  For: AllDays,                           !- Field 178
  Until: 24:00,                           !- Field 179
  12.2277777777778,                       !- Field 180
  Through: 02/15,                         !- Field 181
  For: AllDays,                           !- Field 182
  Until: 24:00,                           !- Field 183
  12.2372222222222,                       !- Field 184
  Through: 02/16,                         !- Field 185
  For: AllDays,                           !- Field 186
  Until: 24:00,                           !- Field 187
  12.2483333333333,                       !- Field 188
  Through: 02/17,                         !- Field 189
  For: AllDays,                           !- Field 190
  Until: 24:00,                           !- Field 191
  12.26,                                  !- Field 192
  Through: 02/18,                         !- Field 193
  For: AllDays,                           !- Field 194
  Until: 24:00,                           !- Field 195
  12.2733333333333,                       !- Field 196
  Through: 02/19,                         !- Field 197
  For: AllDays,                           !- Field 198
  Until: 24:00,                           !- Field 199
  12.2883333333333,                       !- Field 200
  Through: 02/20,                         !- Field 201
  For: AllDays,                           !- Field 202
  Until: 24:00,                           !- Field 203
  12.3038888888889,                       !- Field 204
  Through: 02/21,                         !- Field 205
  For: AllDays,                           !- Field 206
  Until: 24:00,                           !- Field 207
  12.3211111111111,                       !- Field 208
  Through: 02/22,                         !- Field 209
  For: AllDays,                           !- Field 210
  Until: 24:00,                           !- Field 211
  12.3394444444444,                       !- Field 212
  Through: 02/23,                         !- Field 213
  For: AllDays,                           !- Field 214
  Until: 24:00,                           !- Field 215
  12.3594444444444,                       !- Field 216
  Through: 02/24,                         !- Field 217
  For: AllDays,                           !- Field 218
  Until: 24:00,                           !- Field 219
  12.38,                                  !- Field 220
  Through: 02/25,                         !- Field 221
  For: AllDays,                           !- Field 222
  Until: 24:00,                           !- Field 223
  12.4022222222222,                       !- Field 224
  Through: 02/26,                         !- Field 225
  For: AllDays,                           !- Field 226
  Until: 24:00,                           !- Field 227
  12.4255555555556,                       !- Field 228
  Through: 02/27,                         !- Field 229
  For: AllDays,                           !- Field 230
  Until: 24:00,                           !- Field 231
  12.4505555555556,                       !- Field 232
  Through: 02/28,                         !- Field 233
  For: AllDays,                           !- Field 234
  Until: 24:00,                           !- Field 235
  12.4761111111111,                       !- Field 236
  Through: 03/01,                         !- Field 237
  For: AllDays,                           !- Field 238
  Until: 24:00,                           !- Field 239
  12.5033333333333,                       !- Field 240
  Through: 03/02,                         !- Field 241
  For: AllDays,                           !- Field 242
  Until: 24:00,                           !- Field 243
  12.5316666666667,                       !- Field 244
  Through: 03/03,                         !- Field 245
  For: AllDays,                           !- Field 246
  Until: 24:00,                           !- Field 247
  12.5611111111111,                       !- Field 248
  Through: 03/04,                         !- Field 249
  For: AllDays,                           !- Field 250
  Until: 24:00,                           !- Field 251
  12.5916666666667,                       !- Field 252
  Through: 03/05,                         !- Field 253
  For: AllDays,                           !- Field 254
  Until: 24:00,                           !- Field 255
  12.6233333333333,                       !- Field 256
  Through: 03/06,                         !- Field 257
  For: AllDays,                           !- Field 258
  Until: 24:00,                           !- Field 259
  12.6566666666667,                       !- Field 260
  Through: 03/07,                         !- Field 261
  For: AllDays,                           !- Field 262
  Until: 24:00,                           !- Field 263
  12.6905555555556,                       !- Field 264
  Through: 03/08,                         !- Field 265
  For: AllDays,                           !- Field 266
  Until: 24:00,                           !- Field 267
  12.7261111111111,                       !- Field 268
  Through: 03/09,                         !- Field 269
  For: AllDays,                           !- Field 270
  Until: 24:00,                           !- Field 271
  12.7627777777778,                       !- Field 272
  Through: 03/10,                         !- Field 273
  For: AllDays,                           !- Field 274
  Until: 24:00,                           !- Field 275
  12.8,                                   !- Field 276
  Through: 03/11,                         !- Field 277
  For: AllDays,                           !- Field 278
  Until: 24:00,                           !- Field 279
  12.8388888888889,                       !- Field 280
  Through: 03/12,                         !- Field 281
  For: AllDays,                           !- Field 282
  Until: 24:00,                           !- Field 283
  12.8788888888889,                       !- Field 284
  Through: 03/13,                         !- Field 285
  For: AllDays,                           !- Field 286
  Until: 24:00,                           !- Field 287
  12.9194444444444,                       !- Field 288
  Through: 03/14,                         !- Field 289
  For: AllDays,                           !- Field 290
  Until: 24:00,                           !- Field 291
  12.9616666666667,                       !- Field 292
  Through: 03/15,                         !- Field 293
  For: AllDays,                           !- Field 294
  Until: 24:00,                           !- Field 295
  13.0044444444444,                       !- Field 296
  Through: 03/16,                         !- Field 297
  For: AllDays,                           !- Field 298
  Until: 24:00,                           !- Field 299
  13.0488888888889,                       !- Field 300
  Through: 03/17,                         !- Field 301
  For: AllDays,                           !- Field 302
  Until: 24:00,                           !- Field 303
  13.0938888888889,                       !- Field 304
  Through: 03/18,                         !- Field 305
  For: AllDays,                           !- Field 306
  Until: 24:00,                           !- Field 307
  13.14,                                  !- Field 308
  Through: 03/19,                         !- Field 309
  For: AllDays,                           !- Field 310
  Until: 24:00,                           !- Field 311
  13.1872222222222,                       !- Field 312
  Through: 03/20,                         !- Field 313
  For: AllDays,                           !- Field 314
  Until: 24:00,                           !- Field 315
  13.2355555555556,                       !- Field 316
  Through: 03/21,                         !- Field 317
  For: AllDays,                           !- Field 318
  Until: 24:00,                           !- Field 319
  13.285,                                 !- Field 320
  Through: 03/22,                         !- Field 321
  For: AllDays,                           !- Field 322
  Until: 24:00,                           !- Field 323
  13.335,                                 !- Field 324
  Through: 03/23,                         !- Field 325
  For: AllDays,                           !- Field 326
  Until: 24:00,                           !- Field 327
  13.3861111111111,                       !- Field 328
  Through: 03/24,                         !- Field 329
  For: AllDays,                           !- Field 330
  Until: 24:00,                           !- Field 331
  13.4383333333333,                       !- Field 332
  Through: 03/25,                         !- Field 333
  For: AllDays,                           !- Field 334
  Until: 24:00,                           !- Field 335
  13.4911111111111,                       !- Field 336
  Through: 03/26,                         !- Field 337
  For: AllDays,                           !- Field 338
  Until: 24:00,                           !- Field 339
  13.545,                                 !- Field 340
  Through: 03/27,                         !- Field 341
  For: AllDays,                           !- Field 342
  Until: 24:00,                           !- Field 343
  13.6,                                   !- Field 344
  Through: 03/28,                         !- Field 345
  For: AllDays,                           !- Field 346
  Until: 24:00,                           !- Field 347
  13.6555555555556,                       !- Field 348
  Through: 03/29,                         !- Field 349
  For: AllDays,                           !- Field 350
  Until: 24:00,                           !- Field 351
  13.7122222222222,                       !- Field 352
  Through: 03/30,                         !- Field 353
  For: AllDays,                           !- Field 354
  Until: 24:00,                           !- Field 355
  13.77,                                  !- Field 356
  Through: 03/31,                         !- Field 357
  For: AllDays,                           !- Field 358
  Until: 24:00,                           !- Field 359
  13.8283333333333,                       !- Field 360
  Through: 04/01,                         !- Field 361
  For: AllDays,                           !- Field 362
  Until: 24:00,                           !- Field 363
  13.8872222222222,                       !- Field 364
  Through: 04/02,                         !- Field 365
  For: AllDays,                           !- Field 366
  Until: 24:00,                           !- Field 367
  13.9472222222222,                       !- Field 368
  Through: 04/03,                         !- Field 369
  For: AllDays,                           !- Field 370
  Until: 24:00,                           !- Field 371
  14.0077777777778,                       !- Field 372
  Through: 04/04,                         !- Field 373
  For: AllDays,                           !- Field 374
  Until: 24:00,                           !- Field 375
  14.0688888888889,                       !- Field 376
  Through: 04/05,                         !- Field 377
  For: AllDays,                           !- Field 378
  Until: 24:00,                           !- Field 379
  14.1311111111111,                       !- Field 380
  Through: 04/06,                         !- Field 381
  For: AllDays,                           !- Field 382
  Until: 24:00,                           !- Field 383
  14.1944444444444,                       !- Field 384
  Through: 04/07,                         !- Field 385
  For: AllDays,                           !- Field 386
  Until: 24:00,                           !- Field 387
  14.2577777777778,                       !- Field 388
  Through: 04/08,                         !- Field 389
  For: AllDays,                           !- Field 390
  Until: 24:00,                           !- Field 391
  14.3222222222222,                       !- Field 392
  Through: 04/09,                         !- Field 393
  For: AllDays,                           !- Field 394
  Until: 24:00,                           !- Field 395
  14.3872222222222,                       !- Field 396
  Through: 04/10,                         !- Field 397
  For: AllDays,                           !- Field 398
  Until: 24:00,                           !- Field 399
  14.4527777777778,                       !- Field 400
  Through: 04/11,                         !- Field 401
  For: AllDays,                           !- Field 402
  Until: 24:00,                           !- Field 403
  14.5188888888889,                       !- Field 404
  Through: 04/12,                         !- Field 405
  For: AllDays,                           !- Field 406
  Until: 24:00,                           !- Field 407
  14.5855555555556,                       !- Field 408
  Through: 04/13,                         !- Field 409
  For: AllDays,                           !- Field 410
  Until: 24:00,                           !- Field 411
  14.6533333333333,                       !- Field 412
  Through: 04/14,                         !- Field 413
  For: AllDays,                           !- Field 414
  Until: 24:00,                           !- Field 415
  14.7211111111111,                       !- Field 416
  Through: 04/15,                         !- Field 417
  For: AllDays,                           !- Field 418
  Until: 24:00,                           !- Field 419
  14.7894444444444,                       !- Field 420
  Through: 04/16,                         !- Field 421
  For: AllDays,                           !- Field 422
  Until: 24:00,                           !- Field 423
  14.8588888888889,                       !- Field 424
  Through: 04/17,                         !- Field 425
  For: AllDays,                           !- Field 426
  Until: 24:00,                           !- Field 427
  14.9283333333333,                       !- Field 428
  Through: 04/18,                         !- Field 429
  For: AllDays,                           !- Field 430
  Until: 24:00,                           !- Field 431
  14.9983333333333,                       !- Field 432
  Through: 04/19,                         !- Field 433
  For: AllDays,                           !- Field 434
  Until: 24:00,                           !- Field 435
  15.0688888888889,                       !- Field 436
  Through: 04/20,                         !- Field 437
  For: AllDays,                           !- Field 438
  Until: 24:00,                           !- Field 439
  15.14,                                  !- Field 440
  Through: 04/21,                         !- Field 441
  For: AllDays,                           !- Field 442
  Until: 24:00,                           !- Field 443
  15.2111111111111,                       !- Field 444
  Through: 04/22,                         !- Field 445
  For: AllDays,                           !- Field 446
  Until: 24:00,                           !- Field 447
  15.2833333333333,                       !- Field 448
  Through: 04/23,                         !- Field 449
  For: AllDays,                           !- Field 450
  Until: 24:00,                           !- Field 451
  15.3555555555556,                       !- Field 452
  Through: 04/24,                         !- Field 453
  For: AllDays,                           !- Field 454
  Until: 24:00,                           !- Field 455
  15.4277777777778,                       !- Field 456
  Through: 04/25,                         !- Field 457
  For: AllDays,                           !- Field 458
  Until: 24:00,                           !- Field 459
  15.5005555555556,                       !- Field 460
  Through: 04/26,                         !- Field 461
  For: AllDays,                           !- Field 462
  Until: 24:00,                           !- Field 463
  15.5738888888889,                       !- Field 464
  Through: 04/27,                         !- Field 465
  For: AllDays,                           !- Field 466
  Until: 24:00,                           !- Field 467
  15.6477777777778,                       !- Field 468
  Through: 04/28,                         !- Field 469
  For: AllDays,                           !- Field 470
  Until: 24:00,                           !- Field 471
  15.7211111111111,                       !- Field 472
  Through: 04/29,                         !- Field 473
  For: AllDays,                           !- Field 474
  Until: 24:00,                           !- Field 475
  15.7955555555556,                       !- Field 476
  Through: 04/30,                         !- Field 477
  For: AllDays,                           !- Field 478
  Until: 24:00,                           !- Field 479
  15.8694444444444,                       !- Field 480
  Through: 05/01,                         !- Field 481
  For: AllDays,                           !- Field 482
  Until: 24:00,                           !- Field 483
  15.9438888888889,                       !- Field 484
  Through: 05/02,                         !- Field 485
  For: AllDays,                           !- Field 486
  Until: 24:00,                           !- Field 487
  16.0188888888889,                       !- Field 488
  Through: 05/03,                         !- Field 489
  For: AllDays,                           !- Field 490
  Until: 24:00,                           !- Field 491
  16.0938888888889,                       !- Field 492
  Through: 05/04,                         !- Field 493
  For: AllDays,                           !- Field 494
  Until: 24:00,                           !- Field 495
  16.1688888888889,                       !- Field 496
  Through: 05/05,                         !- Field 497
  For: AllDays,                           !- Field 498
  Until: 24:00,                           !- Field 499
  16.2438888888889,                       !- Field 500
  Through: 05/06,                         !- Field 501
  For: AllDays,                           !- Field 502
  Until: 24:00,                           !- Field 503
  16.3188888888889,                       !- Field 504
  Through: 05/07,                         !- Field 505
  For: AllDays,                           !- Field 506
  Until: 24:00,                           !- Field 507
  16.3944444444444,                       !- Field 508
  Through: 05/08,                         !- Field 509
  For: AllDays,                           !- Field 510
  Until: 24:00,                           !- Field 511
  16.4694444444444,                       !- Field 512
  Through: 05/09,                         !- Field 513
  For: AllDays,                           !- Field 514
  Until: 24:00,                           !- Field 515
  16.545,                                 !- Field 516
  Through: 05/10,                         !- Field 517
  For: AllDays,                           !- Field 518
  Until: 24:00,                           !- Field 519
  16.6205555555556,                       !- Field 520
  Through: 05/11,                         !- Field 521
  For: AllDays,                           !- Field 522
  Until: 24:00,                           !- Field 523
  16.6955555555556,                       !- Field 524
  Through: 05/12,                         !- Field 525
  For: AllDays,                           !- Field 526
  Until: 24:00,                           !- Field 527
  16.7711111111111,                       !- Field 528
  Through: 05/13,                         !- Field 529
  For: AllDays,                           !- Field 530
  Until: 24:00,                           !- Field 531
  16.8461111111111,                       !- Field 532
  Through: 05/14,                         !- Field 533
  For: AllDays,                           !- Field 534
  Until: 24:00,                           !- Field 535
  16.9216666666667,                       !- Field 536
  Through: 05/15,                         !- Field 537
  For: AllDays,                           !- Field 538
  Until: 24:00,                           !- Field 539
  16.9966666666667,                       !- Field 540
  Through: 05/16,                         !- Field 541
  For: AllDays,                           !- Field 542
  Until: 24:00,                           !- Field 543
  17.0716666666667,                       !- Field 544
  Through: 05/17,                         !- Field 545
  For: AllDays,                           !- Field 546
  Until: 24:00,                           !- Field 547
  17.1466666666667,                       !- Field 548
  Through: 05/18,                         !- Field 549
  For: AllDays,                           !- Field 550
  Until: 24:00,                           !- Field 551
  17.2211111111111,                       !- Field 552
  Through: 05/19,                         !- Field 553
  For: AllDays,                           !- Field 554
  Until: 24:00,                           !- Field 555
  17.2955555555556,                       !- Field 556
  Through: 05/20,                         !- Field 557
  For: AllDays,                           !- Field 558
  Until: 24:00,                           !- Field 559
  17.37,                                  !- Field 560
  Through: 05/21,                         !- Field 561
  For: AllDays,                           !- Field 562
  Until: 24:00,                           !- Field 563
  17.4438888888889,                       !- Field 564
  Through: 05/22,                         !- Field 565
  For: AllDays,                           !- Field 566
  Until: 24:00,                           !- Field 567
  17.5177777777778,                       !- Field 568
  Through: 05/23,                         !- Field 569
  For: AllDays,                           !- Field 570
  Until: 24:00,                           !- Field 571
  17.5911111111111,                       !- Field 572
  Through: 05/24,                         !- Field 573
  For: AllDays,                           !- Field 574
  Until: 24:00,                           !- Field 575
  17.6644444444444,                       !- Field 576
  Through: 05/25,                         !- Field 577
  For: AllDays,                           !- Field 578
  Until: 24:00,                           !- Field 579
  17.7372222222222,                       !- Field 580
  Through: 05/26,                         !- Field 581
  For: AllDays,                           !- Field 582
  Until: 24:00,                           !- Field 583
  17.8094444444444,                       !- Field 584
  Through: 05/27,                         !- Field 585
  For: AllDays,                           !- Field 586
  Until: 24:00,                           !- Field 587
  17.8816666666667,                       !- Field 588
  Through: 05/28,                         !- Field 589
  For: AllDays,                           !- Field 590
  Until: 24:00,                           !- Field 591
  17.9533333333333,                       !- Field 592
  Through: 05/29,                         !- Field 593
  For: AllDays,                           !- Field 594
  Until: 24:00,                           !- Field 595
  18.025,                                 !- Field 596
  Through: 05/30,                         !- Field 597
  For: AllDays,                           !- Field 598
  Until: 24:00,                           !- Field 599
  18.0961111111111,                       !- Field 600
  Through: 05/31,                         !- Field 601
  For: AllDays,                           !- Field 602
  Until: 24:00,                           !- Field 603
  18.1661111111111,                       !- Field 604
  Through: 06/01,                         !- Field 605
  For: AllDays,                           !- Field 606
  Until: 24:00,                           !- Field 607
  18.2361111111111,                       !- Field 608
  Through: 06/02,                         !- Field 609
  For: AllDays,                           !- Field 610
  Until: 24:00,                           !- Field 611
  18.3061111111111,                       !- Field 612
  Through: 06/03,                         !- Field 613
  For: AllDays,                           !- Field 614
  Until: 24:00,                           !- Field 615
  18.375,                                 !- Field 616
  Through: 06/04,                         !- Field 617
  For: AllDays,                           !- Field 618
  Until: 24:00,                           !- Field 619
  18.4433333333333,                       !- Field 620
  Through: 06/05,                         !- Field 621
  For: AllDays,                           !- Field 622
  Until: 24:00,                           !- Field 623
  18.5111111111111,                       !- Field 624
  Through: 06/06,                         !- Field 625
  For: AllDays,                           !- Field 626
  Until: 24:00,                           !- Field 627
  18.5788888888889,                       !- Field 628
  Through: 06/07,                         !- Field 629
  For: AllDays,                           !- Field 630
  Until: 24:00,                           !- Field 631
  18.6455555555556,                       !- Field 632
  Through: 06/08,                         !- Field 633
  For: AllDays,                           !- Field 634
  Until: 24:00,                           !- Field 635
  18.7116666666667,                       !- Field 636
  Through: 06/09,                         !- Field 637
  For: AllDays,                           !- Field 638
  Until: 24:00,                           !- Field 639
  18.7772222222222,                       !- Field 640
  Through: 06/10,                         !- Field 641
  For: AllDays,                           !- Field 642
  Until: 24:00,                           !- Field 643
  18.8416666666667,                       !- Field 644
  Through: 06/11,                         !- Field 645
  For: AllDays,                           !- Field 646
  Until: 24:00,                           !- Field 647
  18.9061111111111,                       !- Field 648
  Through: 06/12,                         !- Field 649
  For: AllDays,                           !- Field 650
  Until: 24:00,                           !- Field 651
  18.9694444444444,                       !- Field 652
  Through: 06/13,                         !- Field 653
  For: AllDays,                           !- Field 654
  Until: 24:00,                           !- Field 655
  19.0322222222222,                       !- Field 656
  Through: 06/14,                         !- Field 657
  For: AllDays,                           !- Field 658
  Until: 24:00,                           !- Field 659
  19.0944444444444,                       !- Field 660
  Through: 06/15,                         !- Field 661
  For: AllDays,                           !- Field 662
  Until: 24:00,                           !- Field 663
  19.1555555555556,                       !- Field 664
  Through: 06/16,                         !- Field 665
  For: AllDays,                           !- Field 666
  Until: 24:00,                           !- Field 667
  19.2166666666667,                       !- Field 668
  Through: 06/17,                         !- Field 669
  For: AllDays,                           !- Field 670
  Until: 24:00,                           !- Field 671
  19.2761111111111,                       !- Field 672
  Through: 06/18,                         !- Field 673
  For: AllDays,                           !- Field 674
  Until: 24:00,                           !- Field 675
  19.335,                                 !- Field 676
  Through: 06/19,                         !- Field 677
  For: AllDays,                           !- Field 678
  Until: 24:00,                           !- Field 679
  19.3933333333333,                       !- Field 680
  Through: 06/20,                         !- Field 681
  For: AllDays,                           !- Field 682
  Until: 24:00,                           !- Field 683
  19.4505555555556,                       !- Field 684
  Through: 06/21,                         !- Field 685
  For: AllDays,                           !- Field 686
  Until: 24:00,                           !- Field 687
  19.5072222222222,                       !- Field 688
  Through: 06/22,                         !- Field 689
  For: AllDays,                           !- Field 690
  Until: 24:00,                           !- Field 691
  19.5627777777778,                       !- Field 692
  Through: 06/23,                         !- Field 693
  For: AllDays,                           !- Field 694
  Until: 24:00,                           !- Field 695
  19.6172222222222,                       !- Field 696
  Through: 06/24,                         !- Field 697
  For: AllDays,                           !- Field 698
  Until: 24:00,                           !- Field 699
  19.6711111111111,                       !- Field 700
  Through: 06/25,                         !- Field 701
  For: AllDays,                           !- Field 702
  Until: 24:00,                           !- Field 703
  19.7244444444444,                       !- Field 704
  Through: 06/26,                         !- Field 705
  For: AllDays,                           !- Field 706
  Until: 24:00,                           !- Field 707
  19.7761111111111,                       !- Field 708
  Through: 06/27,                         !- Field 709
  For: AllDays,                           !- Field 710
  Until: 24:00,                           !- Field 711
  19.8272222222222,                       !- Field 712
  Through: 06/28,                         !- Field 713
  For: AllDays,                           !- Field 714
  Until: 24:00,                           !- Field 715
  19.8772222222222,                       !- Field 716
  Through: 06/29,                         !- Field 717
  For: AllDays,                           !- Field 718
  Until: 24:00,                           !- Field 719
  19.9266666666667,                       !- Field 720
  Through: 06/30,                         !- Field 721
  For: AllDays,                           !- Field 722
  Until: 24:00,                           !- Field 723
  19.9744444444444,                       !- Field 724
  Through: 07/01,                         !- Field 725
  For: AllDays,                           !- Field 726
  Until: 24:00,                           !- Field 727
  20.0216666666667,                       !- Field 728
  Through: 07/02,                         !- Field 729
  For: AllDays,                           !- Field 730
  Until: 24:00,                           !- Field 731
  20.0677777777778,                       !- Field 732
  Through: 07/03,                         !- Field 733
  For: AllDays,                           !- Field 734
  Until: 24:00,                           !- Field 735
  20.1127777777778,                       !- Field 736
  Through: 07/04,                         !- Field 737
  For: AllDays,                           !- Field 738
  Until: 24:00,                           !- Field 739
  20.1566666666667,                       !- Field 740
  Through: 07/05,                         !- Field 741
  For: AllDays,                           !- Field 742
  Until: 24:00,                           !- Field 743
  20.1994444444444,                       !- Field 744
  Through: 07/06,                         !- Field 745
  For: AllDays,                           !- Field 746
  Until: 24:00,                           !- Field 747
  20.2416666666667,                       !- Field 748
  Through: 07/07,                         !- Field 749
  For: AllDays,                           !- Field 750
  Until: 24:00,                           !- Field 751
  20.2822222222222,                       !- Field 752
  Through: 07/08,                         !- Field 753
  For: AllDays,                           !- Field 754
  Until: 24:00,                           !- Field 755
  20.3222222222222,                       !- Field 756
  Through: 07/09,                         !- Field 757
  For: AllDays,                           !- Field 758
  Until: 24:00,                           !- Field 759
  20.3605555555556,                       !- Field 760
  Through: 07/10,                         !- Field 761
  For: AllDays,                           !- Field 762
  Until: 24:00,                           !- Field 763
  20.3977777777778,                       !- Field 764
  Through: 07/11,                         !- Field 765
  For: AllDays,                           !- Field 766
  Until: 24:00,                           !- Field 767
  20.4344444444444,                       !- Field 768
  Through: 07/12,                         !- Field 769
  For: AllDays,                           !- Field 770
  Until: 24:00,                           !- Field 771
  20.4694444444444,                       !- Field 772
  Through: 07/13,                         !- Field 773
  For: AllDays,                           !- Field 774
  Until: 24:00,                           !- Field 775
  20.5033333333333,                       !- Field 776
  Through: 07/14,                         !- Field 777
  For: AllDays,                           !- Field 778
  Until: 24:00,                           !- Field 779
  20.5366666666667,                       !- Field 780
  Through: 07/15,                         !- Field 781
  For: AllDays,                           !- Field 782
  Until: 24:00,                           !- Field 783
  20.5683333333333,                       !- Field 784
  Through: 07/16,                         !- Field 785
  For: AllDays,                           !- Field 786
  Until: 24:00,                           !- Field 787
  20.5983333333333,                       !- Field 788
  Through: 07/17,                         !- Field 789
  For: AllDays,                           !- Field 790
  Until: 24:00,                           !- Field 791
  20.6277777777778,                       !- Field 792
  Through: 07/18,                         !- Field 793
  For: AllDays,                           !- Field 794
  Until: 24:00,                           !- Field 795
  20.6561111111111,                       !- Field 796
  Through: 07/19,                         !- Field 797
  For: AllDays,                           !- Field 798
  Until: 24:00,                           !- Field 799
  20.6827777777778,                       !- Field 800
  Through: 07/20,                         !- Field 801
  For: AllDays,                           !- Field 802
  Until: 24:00,                           !- Field 803
  20.7088888888889,                       !- Field 804
  Through: 07/21,                         !- Field 805
  For: AllDays,                           !- Field 806
  Until: 24:00,                           !- Field 807
  20.7333333333333,                       !- Field 808
  Through: 07/22,                         !- Field 809
  For: AllDays,                           !- Field 810
  Until: 24:00,                           !- Field 811
  20.7561111111111,                       !- Field 812
  Through: 07/23,                         !- Field 813
  For: AllDays,                           !- Field 814
  Until: 24:00,                           !- Field 815
  20.7783333333333,                       !- Field 816
  Through: 07/24,                         !- Field 817
  For: AllDays,                           !- Field 818
  Until: 24:00,                           !- Field 819
  20.7988888888889,                       !- Field 820
  Through: 07/25,                         !- Field 821
  For: AllDays,                           !- Field 822
  Until: 24:00,                           !- Field 823
  20.8188888888889,                       !- Field 824
  Through: 07/26,                         !- Field 825
  For: AllDays,                           !- Field 826
  Until: 24:00,                           !- Field 827
  20.8366666666667,                       !- Field 828
  Through: 07/27,                         !- Field 829
  For: AllDays,                           !- Field 830
  Until: 24:00,                           !- Field 831
  20.8538888888889,                       !- Field 832
  Through: 07/28,                         !- Field 833
  For: AllDays,                           !- Field 834
  Until: 24:00,                           !- Field 835
  20.8694444444444,                       !- Field 836
  Through: 07/29,                         !- Field 837
  For: AllDays,                           !- Field 838
  Until: 24:00,                           !- Field 839
  20.8838888888889,                       !- Field 840
  Through: 07/30,                         !- Field 841
  For: AllDays,                           !- Field 842
  Until: 24:00,                           !- Field 843
  20.8972222222222,                       !- Field 844
  Through: 07/31,                         !- Field 845
  For: AllDays,                           !- Field 846
  Until: 24:00,                           !- Field 847
  20.9094444444444,                       !- Field 848
  Through: 08/01,                         !- Field 849
  For: AllDays,                           !- Field 850
  Until: 24:00,                           !- Field 851
  20.92,                                  !- Field 852
  Through: 08/02,                         !- Field 853
  For: AllDays,                           !- Field 854
  Until: 24:00,                           !- Field 855
  20.9288888888889,                       !- Field 856
  Through: 08/03,                         !- Field 857
  For: AllDays,                           !- Field 858
  Until: 24:00,                           !- Field 859
  20.9372222222222,                       !- Field 860
  Through: 08/04,                         !- Field 861
  For: AllDays,                           !- Field 862
  Until: 24:00,                           !- Field 863
  20.9438888888889,                       !- Field 864
  Through: 08/05,                         !- Field 865
  For: AllDays,                           !- Field 866
  Until: 24:00,                           !- Field 867
  20.9494444444444,                       !- Field 868
  Through: 08/06,                         !- Field 869
  For: AllDays,                           !- Field 870
  Until: 24:00,                           !- Field 871
  20.9533333333333,                       !- Field 872
  Through: 08/07,                         !- Field 873
  For: AllDays,                           !- Field 874
  Until: 24:00,                           !- Field 875
  20.9566666666667,                       !- Field 876
  Through: 08/08,                         !- Field 877
  For: AllDays,                           !- Field 878
  Until: 24:00,                           !- Field 879
  20.9577777777778,                       !- Field 880
  Through: 08/09,                         !- Field 881
  For: AllDays,                           !- Field 882
  Until: 24:00,                           !- Field 883
  20.9583333333333,                       !- Field 884
  Through: 08/10,                         !- Field 885
  For: AllDays,                           !- Field 886
  Until: 24:00,                           !- Field 887
  20.9572222222222,                       !- Field 888
  Through: 08/11,                         !- Field 889
  For: AllDays,                           !- Field 890
  Until: 24:00,                           !- Field 891
  20.955,                                 !- Field 892
  Through: 08/12,                         !- Field 893
  For: AllDays,                           !- Field 894
  Until: 24:00,                           !- Field 895
  20.9511111111111,                       !- Field 896
  Through: 08/13,                         !- Field 897
  For: AllDays,                           !- Field 898
  Until: 24:00,                           !- Field 899
  20.9466666666667,                       !- Field 900
  Through: 08/14,                         !- Field 901
  For: AllDays,                           !- Field 902
  Until: 24:00,                           !- Field 903
  20.94,                                  !- Field 904
  Through: 08/15,                         !- Field 905
  For: AllDays,                           !- Field 906
  Until: 24:00,                           !- Field 907
  20.9327777777778,                       !- Field 908
  Through: 08/16,                         !- Field 909
  For: AllDays,                           !- Field 910
  Until: 24:00,                           !- Field 911
  20.9238888888889,                       !- Field 912
  Through: 08/17,                         !- Field 913
  For: AllDays,                           !- Field 914
  Until: 24:00,                           !- Field 915
  20.9138888888889,                       !- Field 916
  Through: 08/18,                         !- Field 917
  For: AllDays,                           !- Field 918
  Until: 24:00,                           !- Field 919
  20.9027777777778,                       !- Field 920
  Through: 08/19,                         !- Field 921
  For: AllDays,                           !- Field 922
  Until: 24:00,                           !- Field 923
  20.89,                                  !- Field 924
  Through: 08/20,                         !- Field 925
  For: AllDays,                           !- Field 926
  Until: 24:00,                           !- Field 927
  20.8761111111111,                       !- Field 928
  Through: 08/21,                         !- Field 929
  For: AllDays,                           !- Field 930
  Until: 24:00,                           !- Field 931
  20.8611111111111,                       !- Field 932
  Through: 08/22,                         !- Field 933
  For: AllDays,                           !- Field 934
  Until: 24:00,                           !- Field 935
  20.8444444444444,                       !- Field 936
  Through: 08/23,                         !- Field 937
  For: AllDays,                           !- Field 938
  Until: 24:00,                           !- Field 939
  20.8266666666667,                       !- Field 940
  Through: 08/24,                         !- Field 941
  For: AllDays,                           !- Field 942
  Until: 24:00,                           !- Field 943
  20.8077777777778,                       !- Field 944
  Through: 08/25,                         !- Field 945
  For: AllDays,                           !- Field 946
  Until: 24:00,                           !- Field 947
  20.7872222222222,                       !- Field 948
  Through: 08/26,                         !- Field 949
  For: AllDays,                           !- Field 950
  Until: 24:00,                           !- Field 951
  20.7661111111111,                       !- Field 952
  Through: 08/27,                         !- Field 953
  For: AllDays,                           !- Field 954
  Until: 24:00,                           !- Field 955
  20.7433333333333,                       !- Field 956
  Through: 08/28,                         !- Field 957
  For: AllDays,                           !- Field 958
  Until: 24:00,                           !- Field 959
  20.7194444444444,                       !- Field 960
  Through: 08/29,                         !- Field 961
  For: AllDays,                           !- Field 962
  Until: 24:00,                           !- Field 963
  20.6944444444444,                       !- Field 964
  Through: 08/30,                         !- Field 965
  For: AllDays,                           !- Field 966
  Until: 24:00,                           !- Field 967
  20.6677777777778,                       !- Field 968
  Through: 08/31,                         !- Field 969
  For: AllDays,                           !- Field 970
  Until: 24:00,                           !- Field 971
  20.64,                                  !- Field 972
  Through: 09/01,                         !- Field 973
  For: AllDays,                           !- Field 974
  Until: 24:00,                           !- Field 975
  20.6111111111111,                       !- Field 976
  Through: 09/02,                         !- Field 977
  For: AllDays,                           !- Field 978
  Until: 24:00,                           !- Field 979
  20.5811111111111,                       !- Field 980
  Through: 09/03,                         !- Field 981
  For: AllDays,                           !- Field 982
  Until: 24:00,                           !- Field 983
  20.55,                                  !- Field 984
  Through: 09/04,                         !- Field 985
  For: AllDays,                           !- Field 986
  Until: 24:00,                           !- Field 987
  20.5177777777778,                       !- Field 988
  Through: 09/05,                         !- Field 989
  For: AllDays,                           !- Field 990
  Until: 24:00,                           !- Field 991
  20.4844444444444,                       !- Field 992
  Through: 09/06,                         !- Field 993
  For: AllDays,                           !- Field 994
  Until: 24:00,                           !- Field 995
  20.4494444444444,                       !- Field 996
  Through: 09/07,                         !- Field 997
  For: AllDays,                           !- Field 998
  Until: 24:00,                           !- Field 999
  20.4138888888889,                       !- Field 1000
  Through: 09/08,                         !- Field 1001
  For: AllDays,                           !- Field 1002
  Until: 24:00,                           !- Field 1003
  20.3766666666667,                       !- Field 1004
  Through: 09/09,                         !- Field 1005
  For: AllDays,                           !- Field 1006
  Until: 24:00,                           !- Field 1007
  20.3388888888889,                       !- Field 1008
  Through: 09/10,                         !- Field 1009
  For: AllDays,                           !- Field 1010
  Until: 24:00,                           !- Field 1011
  20.2994444444444,                       !- Field 1012
  Through: 09/11,                         !- Field 1013
  For: AllDays,                           !- Field 1014
  Until: 24:00,                           !- Field 1015
  20.2594444444444,                       !- Field 1016
  Through: 09/12,                         !- Field 1017
  For: AllDays,                           !- Field 1018
  Until: 24:00,                           !- Field 1019
  20.2177777777778,                       !- Field 1020
  Through: 09/13,                         !- Field 1021
  For: AllDays,                           !- Field 1022
  Until: 24:00,                           !- Field 1023
  20.1755555555556,                       !- Field 1024
  Through: 09/14,                         !- Field 1025
  For: AllDays,                           !- Field 1026
  Until: 24:00,                           !- Field 1027
  20.1316666666667,                       !- Field 1028
  Through: 09/15,                         !- Field 1029
  For: AllDays,                           !- Field 1030
  Until: 24:00,                           !- Field 1031
  20.0872222222222,                       !- Field 1032
  Through: 09/16,                         !- Field 1033
  For: AllDays,                           !- Field 1034
  Until: 24:00,                           !- Field 1035
  20.0416666666667,                       !- Field 1036
  Through: 09/17,                         !- Field 1037
  For: AllDays,                           !- Field 1038
  Until: 24:00,                           !- Field 1039
  19.995,                                 !- Field 1040
  Through: 09/18,                         !- Field 1041
  For: AllDays,                           !- Field 1042
  Until: 24:00,                           !- Field 1043
  19.9472222222222,                       !- Field 1044
  Through: 09/19,                         !- Field 1045
  For: AllDays,                           !- Field 1046
  Until: 24:00,                           !- Field 1047
  19.8983333333333,                       !- Field 1048
  Through: 09/20,                         !- Field 1049
  For: AllDays,                           !- Field 1050
  Until: 24:00,                           !- Field 1051
  19.8488888888889,                       !- Field 1052
  Through: 09/21,                         !- Field 1053
  For: AllDays,                           !- Field 1054
  Until: 24:00,                           !- Field 1055
  19.7983333333333,                       !- Field 1056
  Through: 09/22,                         !- Field 1057
  For: AllDays,                           !- Field 1058
  Until: 24:00,                           !- Field 1059
  19.7466666666667,                       !- Field 1060
  Through: 09/23,                         !- Field 1061
  For: AllDays,                           !- Field 1062
  Until: 24:00,                           !- Field 1063
  19.6944444444444,                       !- Field 1064
  Through: 09/24,                         !- Field 1065
  For: AllDays,                           !- Field 1066
  Until: 24:00,                           !- Field 1067
  19.6405555555556,                       !- Field 1068
  Through: 09/25,                         !- Field 1069
  For: AllDays,                           !- Field 1070
  Until: 24:00,                           !- Field 1071
  19.5866666666667,                       !- Field 1072
  Through: 09/26,                         !- Field 1073
  For: AllDays,                           !- Field 1074
  Until: 24:00,                           !- Field 1075
  19.5311111111111,                       !- Field 1076
  Through: 09/27,                         !- Field 1077
  For: AllDays,                           !- Field 1078
  Until: 24:00,                           !- Field 1079
  19.475,                                 !- Field 1080
  Through: 09/28,                         !- Field 1081
  For: AllDays,                           !- Field 1082
  Until: 24:00,                           !- Field 1083
  19.4183333333333,                       !- Field 1084
  Through: 09/29,                         !- Field 1085
  For: AllDays,                           !- Field 1086
  Until: 24:00,                           !- Field 1087
  19.3605555555556,                       !- Field 1088
  Through: 09/30,                         !- Field 1089
  For: AllDays,                           !- Field 1090
  Until: 24:00,                           !- Field 1091
  19.3016666666667,                       !- Field 1092
  Through: 10/01,                         !- Field 1093
  For: AllDays,                           !- Field 1094
  Until: 24:00,                           !- Field 1095
  19.2422222222222,                       !- Field 1096
  Through: 10/02,                         !- Field 1097
  For: AllDays,                           !- Field 1098
  Until: 24:00,                           !- Field 1099
  19.1822222222222,                       !- Field 1100
  Through: 10/03,                         !- Field 1101
  For: AllDays,                           !- Field 1102
  Until: 24:00,                           !- Field 1103
  19.1211111111111,                       !- Field 1104
  Through: 10/04,                         !- Field 1105
  For: AllDays,                           !- Field 1106
  Until: 24:00,                           !- Field 1107
  19.0594444444444,                       !- Field 1108
  Through: 10/05,                         !- Field 1109
  For: AllDays,                           !- Field 1110
  Until: 24:00,                           !- Field 1111
  18.9966666666667,                       !- Field 1112
  Through: 10/06,                         !- Field 1113
  For: AllDays,                           !- Field 1114
  Until: 24:00,                           !- Field 1115
  18.9333333333333,                       !- Field 1116
  Through: 10/07,                         !- Field 1117
  For: AllDays,                           !- Field 1118
  Until: 24:00,                           !- Field 1119
  18.8694444444444,                       !- Field 1120
  Through: 10/08,                         !- Field 1121
  For: AllDays,                           !- Field 1122
  Until: 24:00,                           !- Field 1123
  18.805,                                 !- Field 1124
  Through: 10/09,                         !- Field 1125
  For: AllDays,                           !- Field 1126
  Until: 24:00,                           !- Field 1127
  18.74,                                  !- Field 1128
  Through: 10/10,                         !- Field 1129
  For: AllDays,                           !- Field 1130
  Until: 24:00,                           !- Field 1131
  18.6738888888889,                       !- Field 1132
  Through: 10/11,                         !- Field 1133
  For: AllDays,                           !- Field 1134
  Until: 24:00,                           !- Field 1135
  18.6072222222222,                       !- Field 1136
  Through: 10/12,                         !- Field 1137
  For: AllDays,                           !- Field 1138
  Until: 24:00,                           !- Field 1139
  18.5405555555556,                       !- Field 1140
  Through: 10/13,                         !- Field 1141
  For: AllDays,                           !- Field 1142
  Until: 24:00,                           !- Field 1143
  18.4727777777778,                       !- Field 1144
  Through: 10/14,                         !- Field 1145
  For: AllDays,                           !- Field 1146
  Until: 24:00,                           !- Field 1147
  18.4044444444444,                       !- Field 1148
  Through: 10/15,                         !- Field 1149
  For: AllDays,                           !- Field 1150
  Until: 24:00,                           !- Field 1151
  18.3355555555556,                       !- Field 1152
  Through: 10/16,                         !- Field 1153
  For: AllDays,                           !- Field 1154
  Until: 24:00,                           !- Field 1155
  18.2661111111111,                       !- Field 1156
  Through: 10/17,                         !- Field 1157
  For: AllDays,                           !- Field 1158
  Until: 24:00,                           !- Field 1159
  18.1966666666667,                       !- Field 1160
  Through: 10/18,                         !- Field 1161
  For: AllDays,                           !- Field 1162
  Until: 24:00,                           !- Field 1163
  18.1261111111111,                       !- Field 1164
  Through: 10/19,                         !- Field 1165
  For: AllDays,                           !- Field 1166
  Until: 24:00,                           !- Field 1167
  18.0555555555556,                       !- Field 1168
  Through: 10/20,                         !- Field 1169
  For: AllDays,                           !- Field 1170
  Until: 24:00,                           !- Field 1171
  17.9844444444444,                       !- Field 1172
  Through: 10/21,                         !- Field 1173
  For: AllDays,                           !- Field 1174
  Until: 24:00,                           !- Field 1175
  17.9127777777778,                       !- Field 1176
  Through: 10/22,                         !- Field 1177
  For: AllDays,                           !- Field 1178
  Until: 24:00,                           !- Field 1179
  17.8405555555556,                       !- Field 1180
  Through: 10/23,                         !- Field 1181
  For: AllDays,                           !- Field 1182
  Until: 24:00,                           !- Field 1183
  17.7683333333333,                       !- Field 1184
  Through: 10/24,                         !- Field 1185
  For: AllDays,                           !- Field 1186
  Until: 24:00,                           !- Field 1187
  17.6955555555556,                       !- Field 1188
  Through: 10/25,                         !- Field 1189
  For: AllDays,                           !- Field 1190
  Until: 24:00,                           !- Field 1191
  17.6227777777778,                       !- Field 1192
  Through: 10/26,                         !- Field 1193
  For: AllDays,                           !- Field 1194
  Until: 24:00,                           !- Field 1195
  17.5494444444444,                       !- Field 1196
  Through: 10/27,                         !- Field 1197
  For: AllDays,                           !- Field 1198
  Until: 24:00,                           !- Field 1199
  17.4755555555556,                       !- Field 1200
  Through: 10/28,                         !- Field 1201
  For: AllDays,                           !- Field 1202
  Until: 24:00,                           !- Field 1203
  17.4016666666667,                       !- Field 1204
  Through: 10/29,                         !- Field 1205
  For: AllDays,                           !- Field 1206
  Until: 24:00,                           !- Field 1207
  17.3277777777778,                       !- Field 1208
  Through: 10/30,                         !- Field 1209
  For: AllDays,                           !- Field 1210
  Until: 24:00,                           !- Field 1211
  17.2533333333333,                       !- Field 1212
  Through: 10/31,                         !- Field 1213
  For: AllDays,                           !- Field 1214
  Until: 24:00,                           !- Field 1215
  17.1788888888889,                       !- Field 1216
  Through: 11/01,                         !- Field 1217
  For: AllDays,                           !- Field 1218
  Until: 24:00,                           !- Field 1219
  17.1038888888889,                       !- Field 1220
  Through: 11/02,                         !- Field 1221
  For: AllDays,                           !- Field 1222
  Until: 24:00,                           !- Field 1223
  17.0288888888889,                       !- Field 1224
  Through: 11/03,                         !- Field 1225
  For: AllDays,                           !- Field 1226
  Until: 24:00,                           !- Field 1227
  16.9538888888889,                       !- Field 1228
  Through: 11/04,                         !- Field 1229
  For: AllDays,                           !- Field 1230
  Until: 24:00,                           !- Field 1231
  16.8788888888889,                       !- Field 1232
  Through: 11/05,                         !- Field 1233
  For: AllDays,                           !- Field 1234
  Until: 24:00,                           !- Field 1235
  16.8033333333333,                       !- Field 1236
  Through: 11/06,                         !- Field 1237
  For: AllDays,                           !- Field 1238
  Until: 24:00,                           !- Field 1239
  16.7283333333333,                       !- Field 1240
  Through: 11/07,                         !- Field 1241
  For: AllDays,                           !- Field 1242
  Until: 24:00,                           !- Field 1243
  16.6527777777778,                       !- Field 1244
  Through: 11/08,                         !- Field 1245
  For: AllDays,                           !- Field 1246
  Until: 24:00,                           !- Field 1247
  16.5772222222222,                       !- Field 1248
  Through: 11/09,                         !- Field 1249
  For: AllDays,                           !- Field 1250
  Until: 24:00,                           !- Field 1251
  16.5022222222222,                       !- Field 1252
  Through: 11/10,                         !- Field 1253
  For: AllDays,                           !- Field 1254
  Until: 24:00,                           !- Field 1255
  16.4266666666667,                       !- Field 1256
  Through: 11/11,                         !- Field 1257
  For: AllDays,                           !- Field 1258
  Until: 24:00,                           !- Field 1259
  16.3516666666667,                       !- Field 1260
  Through: 11/12,                         !- Field 1261
  For: AllDays,                           !- Field 1262
  Until: 24:00,                           !- Field 1263
  16.2761111111111,                       !- Field 1264
  Through: 11/13,                         !- Field 1265
  For: AllDays,                           !- Field 1266
  Until: 24:00,                           !- Field 1267
  16.2011111111111,                       !- Field 1268
  Through: 11/14,                         !- Field 1269
  For: AllDays,                           !- Field 1270
  Until: 24:00,                           !- Field 1271
  16.1261111111111,                       !- Field 1272
  Through: 11/15,                         !- Field 1273
  For: AllDays,                           !- Field 1274
  Until: 24:00,                           !- Field 1275
  16.0511111111111,                       !- Field 1276
  Through: 11/16,                         !- Field 1277
  For: AllDays,                           !- Field 1278
  Until: 24:00,                           !- Field 1279
  15.9761111111111,                       !- Field 1280
  Through: 11/17,                         !- Field 1281
  For: AllDays,                           !- Field 1282
  Until: 24:00,                           !- Field 1283
  15.9016666666667,                       !- Field 1284
  Through: 11/18,                         !- Field 1285
  For: AllDays,                           !- Field 1286
  Until: 24:00,                           !- Field 1287
  15.8272222222222,                       !- Field 1288
  Through: 11/19,                         !- Field 1289
  For: AllDays,                           !- Field 1290
  Until: 24:00,                           !- Field 1291
  15.7533333333333,                       !- Field 1292
  Through: 11/20,                         !- Field 1293
  For: AllDays,                           !- Field 1294
  Until: 24:00,                           !- Field 1295
  15.6794444444444,                       !- Field 1296
  Through: 11/21,                         !- Field 1297
  For: AllDays,                           !- Field 1298
  Until: 24:00,                           !- Field 1299
  15.6055555555556,                       !- Field 1300
  Through: 11/22,                         !- Field 1301
  For: AllDays,                           !- Field 1302
  Until: 24:00,                           !- Field 1303
  15.5322222222222,                       !- Field 1304
  Through: 11/23,                         !- Field 1305
  For: AllDays,                           !- Field 1306
  Until: 24:00,                           !- Field 1307
  15.4594444444444,                       !- Field 1308
  Through: 11/24,                         !- Field 1309
  For: AllDays,                           !- Field 1310
  Until: 24:00,                           !- Field 1311
  15.3866666666667,                       !- Field 1312
  Through: 11/25,                         !- Field 1313
  For: AllDays,                           !- Field 1314
  Until: 24:00,                           !- Field 1315
  15.3144444444444,                       !- Field 1316
  Through: 11/26,                         !- Field 1317
  For: AllDays,                           !- Field 1318
  Until: 24:00,                           !- Field 1319
  15.2422222222222,                       !- Field 1320
  Through: 11/27,                         !- Field 1321
  For: AllDays,                           !- Field 1322
  Until: 24:00,                           !- Field 1323
  15.1705555555556,                       !- Field 1324
  Through: 11/28,                         !- Field 1325
  For: AllDays,                           !- Field 1326
  Until: 24:00,                           !- Field 1327
  15.0994444444444,                       !- Field 1328
  Through: 11/29,                         !- Field 1329
  For: AllDays,                           !- Field 1330
  Until: 24:00,                           !- Field 1331
  15.0288888888889,                       !- Field 1332
  Through: 11/30,                         !- Field 1333
  For: AllDays,                           !- Field 1334
  Until: 24:00,                           !- Field 1335
  14.9583333333333,                       !- Field 1336
  Through: 12/01,                         !- Field 1337
  For: AllDays,                           !- Field 1338
  Until: 24:00,                           !- Field 1339
  14.8888888888889,                       !- Field 1340
  Through: 12/02,                         !- Field 1341
  For: AllDays,                           !- Field 1342
  Until: 24:00,                           !- Field 1343
  14.8194444444444,                       !- Field 1344
  Through: 12/03,                         !- Field 1345
  For: AllDays,                           !- Field 1346
  Until: 24:00,                           !- Field 1347
  14.7505555555556,                       !- Field 1348
  Through: 12/04,                         !- Field 1349
  For: AllDays,                           !- Field 1350
  Until: 24:00,                           !- Field 1351
  14.6822222222222,                       !- Field 1352
  Through: 12/05,                         !- Field 1353
  For: AllDays,                           !- Field 1354
  Until: 24:00,                           !- Field 1355
  14.6144444444444,                       !- Field 1356
  Through: 12/06,                         !- Field 1357
  For: AllDays,                           !- Field 1358
  Until: 24:00,                           !- Field 1359
  14.5477777777778,                       !- Field 1360
  Through: 12/07,                         !- Field 1361
  For: AllDays,                           !- Field 1362
  Until: 24:00,                           !- Field 1363
  14.4811111111111,                       !- Field 1364
  Through: 12/08,                         !- Field 1365
  For: AllDays,                           !- Field 1366
  Until: 24:00,                           !- Field 1367
  14.415,                                 !- Field 1368
  Through: 12/09,                         !- Field 1369
  For: AllDays,                           !- Field 1370
  Until: 24:00,                           !- Field 1371
  14.35,                                  !- Field 1372
  Through: 12/10,                         !- Field 1373
  For: AllDays,                           !- Field 1374
  Until: 24:00,                           !- Field 1375
  14.2855555555556,                       !- Field 1376
  Through: 12/11,                         !- Field 1377
  For: AllDays,                           !- Field 1378
  Until: 24:00,                           !- Field 1379
  14.2216666666667,                       !- Field 1380
  Through: 12/12,                         !- Field 1381
  For: AllDays,                           !- Field 1382
  Until: 24:00,                           !- Field 1383
  14.1583333333333,                       !- Field 1384
  Through: 12/13,                         !- Field 1385
  For: AllDays,                           !- Field 1386
  Until: 24:00,                           !- Field 1387
  14.0961111111111,                       !- Field 1388
  Through: 12/14,                         !- Field 1389
  For: AllDays,                           !- Field 1390
  Until: 24:00,                           !- Field 1391
  14.0338888888889,                       !- Field 1392
  Through: 12/15,                         !- Field 1393
  For: AllDays,                           !- Field 1394
  Until: 24:00,                           !- Field 1395
  13.9733333333333,                       !- Field 1396
  Through: 12/16,                         !- Field 1397
  For: AllDays,                           !- Field 1398
  Until: 24:00,                           !- Field 1399
  13.9127777777778,                       !- Field 1400
  Through: 12/17,                         !- Field 1401
  For: AllDays,                           !- Field 1402
  Until: 24:00,                           !- Field 1403
  13.8533333333333,                       !- Field 1404
  Through: 12/18,                         !- Field 1405
  For: AllDays,                           !- Field 1406
  Until: 24:00,                           !- Field 1407
  13.795,                                 !- Field 1408
  Through: 12/19,                         !- Field 1409
  For: AllDays,                           !- Field 1410
  Until: 24:00,                           !- Field 1411
  13.7372222222222,                       !- Field 1412
  Through: 12/20,                         !- Field 1413
  For: AllDays,                           !- Field 1414
  Until: 24:00,                           !- Field 1415
  13.68,                                  !- Field 1416
  Through: 12/21,                         !- Field 1417
  For: AllDays,                           !- Field 1418
  Until: 24:00,                           !- Field 1419
  13.6238888888889,                       !- Field 1420
  Through: 12/22,                         !- Field 1421
  For: AllDays,                           !- Field 1422
  Until: 24:00,                           !- Field 1423
  13.5688888888889,                       !- Field 1424
  Through: 12/23,                         !- Field 1425
  For: AllDays,                           !- Field 1426
  Until: 24:00,                           !- Field 1427
  13.5144444444444,                       !- Field 1428
  Through: 12/24,                         !- Field 1429
  For: AllDays,                           !- Field 1430
  Until: 24:00,                           !- Field 1431
  13.4611111111111,                       !- Field 1432
  Through: 12/25,                         !- Field 1433
  For: AllDays,                           !- Field 1434
  Until: 24:00,                           !- Field 1435
  13.4083333333333,                       !- Field 1436
  Through: 12/26,                         !- Field 1437
  For: AllDays,                           !- Field 1438
  Until: 24:00,                           !- Field 1439
  13.3572222222222,                       !- Field 1440
  Through: 12/27,                         !- Field 1441
  For: AllDays,                           !- Field 1442
  Until: 24:00,                           !- Field 1443
  13.3061111111111,                       !- Field 1444
  Through: 12/28,                         !- Field 1445
  For: AllDays,                           !- Field 1446
  Until: 24:00,                           !- Field 1447
  13.2566666666667,                       !- Field 1448
  Through: 12/29,                         !- Field 1449
  For: AllDays,                           !- Field 1450
  Until: 24:00,                           !- Field 1451
  13.2077777777778,                       !- Field 1452
  Through: 12/30,                         !- Field 1453
  For: AllDays,                           !- Field 1454
  Until: 24:00,                           !- Field 1455
  13.1605555555556,                       !- Field 1456
  Through: 12/31,                         !- Field 1457
  For: AllDays,                           !- Field 1458
  Until: 24:00,                           !- Field 1459
  13.1138888888889;                       !- Field 1460

Schedule:File,
  hot_water_clothes_washer,               !- Name
  Fractional,                             !- Schedule Type Limits Name
  in.schedules.csv,                       !- File Name
  6,                                      !- Column Number
  1,                                      !- Rows to Skip at Top
  8760,                                   !- Number of Hours of Data
  Comma,                                  !- Column Separator
  Yes,                                    !- Interpolate to Timestep
  15,                                     !- Minutes per Item
  Yes;                                    !- Adjust Schedule for Daylight Savings

Schedule:File,
  hot_water_fixtures,                     !- Name
  Fractional,                             !- Schedule Type Limits Name
  in.schedules.csv,                       !- File Name
  9,                                      !- Column Number
  1,                                      !- Rows to Skip at Top
  8760,                                   !- Number of Hours of Data
  Comma,                                  !- Column Separator
  Yes,                                    !- Interpolate to Timestep
  15,                                     !- Minutes per Item
  Yes;                                    !- Adjust Schedule for Daylight Savings

OutdoorAir:Node,
  Model Outdoor Air Node;                 !- Name

AirLoopHVAC,
  air source heat pump airloop,           !- Name
  ,                                       !- Controller List Name
  air source heat pump airloopAvailability Manager List, !- Availability Manager List Name
  0.4327758054144,                        !- Design Supply Air Flow Rate {m3/s}
  air source heat pump airloop Supply Branches, !- Branch List Name
  ,                                       !- Connector List Name
  Node 4,                                 !- Supply Side Inlet Node Name
  Node 7,                                 !- Demand Side Outlet Node Name
  air source heat pump airloop Demand Inlet Nodes, !- Demand Side Inlet Node Names
  air source heat pump airloop Supply Outlet Nodes, !- Supply Side Outlet Node Names
  1;                                      !- Design Return Air Flow Fraction of Supply Air Flow

NodeList,
  air source heat pump airloop Supply Outlet Nodes, !- Name
  Node 5;                                 !- Node Name 1

NodeList,
  air source heat pump airloop Demand Inlet Nodes, !- Name
  Node 6;                                 !- Node Name 1

Sizing:System,
  air source heat pump airloop,           !- AirLoop Name
  Sensible,                               !- Type of Load to Size On
  Autosize,                               !- Design Outdoor Air Flow Rate {m3/s}
  0.3,                                    !- Central Heating Maximum System Air Flow Ratio
  7,                                      !- Preheat Design Temperature {C}
  0.008,                                  !- Preheat Design Humidity Ratio {kgWater/kgDryAir}
  12.8,                                   !- Precool Design Temperature {C}
  0.008,                                  !- Precool Design Humidity Ratio {kgWater/kgDryAir}
  12.8,                                   !- Central Cooling Design Supply Air Temperature {C}
  16.7,                                   !- Central Heating Design Supply Air Temperature {C}
  NonCoincident,                          !- Type of Zone Sum to Use
  Yes,                                    !- 100% Outdoor Air in Cooling
  Yes,                                    !- 100% Outdoor Air in Heating
  0.0085,                                 !- Central Cooling Design Supply Air Humidity Ratio {kgWater/kgDryAir}
  0.008,                                  !- Central Heating Design Supply Air Humidity Ratio {kgWater/kgDryAir}
  DesignDay,                              !- Cooling Supply Air Flow Rate Method
  0,                                      !- Cooling Supply Air Flow Rate {m3/s}
  0.0099676501,                           !- Cooling Supply Air Flow Rate Per Floor Area {m3/s-m2}
  1,                                      !- Cooling Fraction of Autosized Cooling Supply Air Flow Rate
  3.9475456e-05,                          !- Cooling Supply Air Flow Rate Per Unit Cooling Capacity {m3/s-W}
  DesignDay,                              !- Heating Supply Air Flow Rate Method
  0,                                      !- Heating Supply Air Flow Rate {m3/s}
  0.0099676501,                           !- Heating Supply Air Flow Rate Per Floor Area {m3/s-m2}
  1,                                      !- Heating Fraction of Autosized Heating Supply Air Flow Rate
  1,                                      !- Heating Fraction of Autosized Cooling Supply Air Flow Rate
  3.1588213e-05,                          !- Heating Supply Air Flow Rate Per Unit Heating Capacity {m3/s-W}
  ZoneSum,                                !- System Outdoor Air Method
  1,                                      !- Zone Maximum Outdoor Air Fraction {dimensionless}
  CoolingDesignCapacity,                  !- Cooling Design Capacity Method
  Autosize,                               !- Cooling Design Capacity {W}
  234.7,                                  !- Cooling Design Capacity Per Floor Area {W/m2}
  1,                                      !- Fraction of Autosized Cooling Design Capacity
  HeatingDesignCapacity,                  !- Heating Design Capacity Method
  Autosize,                               !- Heating Design Capacity {W}
  157,                                    !- Heating Design Capacity Per Floor Area {W/m2}
  1,                                      !- Fraction of Autosized Heating Design Capacity
  OnOff,                                  !- Central Cooling Capacity Control Method
  Autosize;                               !- Occupant Diversity

AvailabilityManagerAssignmentList,
  air source heat pump airloopAvailability Manager List, !- Name
  AvailabilityManager:Scheduled,          !- Availability Manager Object Type 1
  air source heat pump airloop Availability Manager; !- Availability Manager Name 1

AvailabilityManager:Scheduled,
  air source heat pump airloop Availability Manager, !- Name
  Always On Discrete;                     !- Schedule Name

BranchList,
  air source heat pump airloop Supply Branches, !- Name
  air source heat pump airloop Main Branch; !- Branch Name 1

Branch,
  air source heat pump airloop Main Branch, !- Name
  ,                                       !- Pressure Drop Curve Name
  AirLoopHVAC:UnitarySystem,              !- Component Object Type 1
  air source heat pump unitary system,    !- Component Name 1
  Node 4,                                 !- Component Inlet Node Name 1
  Node 5;                                 !- Component Outlet Node Name 1

AirLoopHVAC:UnitarySystem,
  air source heat pump unitary system,    !- Name
  Load,                                   !- Control Type
  conditioned space,                      !- Controlling Zone or Thermostat Location
  None,                                   !- Dehumidification Control Type
  Always On Discrete,                     !- Availability Schedule Name
  Node 4,                                 !- Air Inlet Node Name
  Node 5,                                 !- Air Outlet Node Name
  Fan:SystemModel,                        !- Supply Fan Object Type
  air source heat pump supply fan,        !- Supply Fan Name
  BlowThrough,                            !- Fan Placement
  air source heat pump auto fan schedule, !- Supply Air Fan Operating Mode Schedule Name
  Coil:Heating:DX:SingleSpeed,            !- Heating Coil Object Type
  air source heat pump htg coil,          !- Heating Coil Name
  1,                                      !- DX Heating Coil Sizing Ratio
  Coil:Cooling:DX:SingleSpeed,            !- Cooling Coil Object Type
  air source heat pump clg coil,          !- Cooling Coil Name
  No,                                     !- Use DOAS DX Cooling Coil
  2,                                      !- Minimum Supply Air Temperature {C}
  SensibleOnlyLoadControl,                !- Latent Load Control
  Coil:Heating:Electric,                  !- Supplemental Heating Coil Object Type
  air source heat pump backup htg coil,   !- Supplemental Heating Coil Name
  SupplyAirFlowRate,                      !- Cooling Supply Air Flow Rate Method
  0.4327758054144,                        !- Cooling Supply Air Flow Rate {m3/s}
  ,                                       !- Cooling Supply Air Flow Rate Per Floor Area {m3/s-m2}
  ,                                       !- Cooling Fraction of Autosized Cooling Supply Air Flow Rate
  ,                                       !- Cooling Supply Air Flow Rate Per Unit of Capacity {m3/s-W}
  SupplyAirFlowRate,                      !- Heating Supply Air Flow Rate Method
  0.3383863167744,                        !- Heating Supply Air Flow Rate {m3/s}
  ,                                       !- Heating Supply Air Flow Rate Per Floor Area {m3/s-m2}
  ,                                       !- Heating Fraction of Autosized Heating Supply Air Flow Rate
  ,                                       !- Heating Supply Air Flow Rate Per Unit of Capacity {m3/s-W}
  SupplyAirFlowRate,                      !- No Load Supply Air Flow Rate Method
  0,                                      !- No Load Supply Air Flow Rate {m3/s}
  ,                                       !- No Load Supply Air Flow Rate Per Floor Area {m3/s-m2}
  ,                                       !- No Load Fraction of Autosized Cooling Supply Air Flow Rate
  ,                                       !- No Load Fraction of Autosized Heating Supply Air Flow Rate
  ,                                       !- No Load Supply Air Flow Rate Per Unit of Capacity During Cooling Operation {m3/s-W}
  ,                                       !- No Load Supply Air Flow Rate Per Unit of Capacity During Heating Operation {m3/s-W}
  Yes,                                    !- No Load Supply Air Flow Rate Control Set To Low Speed
  93.3333333333333,                       !- Maximum Supply Air Temperature {C}
  4.44444444444444,                       !- Maximum Outdoor Dry-Bulb Temperature for Supplemental Heater Operation {C}
  ,                                       !- Outdoor Dry-Bulb Temperature Sensor Node Name
  0,                                      !- Ancillary On-Cycle Electric Power {W}
  0;                                      !- Ancillary Off-Cycle Electric Power {W}

Fan:SystemModel,
  air source heat pump supply fan,        !- Name
  Always On Discrete,                     !- Availability Schedule Name
  Node 4,                                 !- Air Inlet Node Name
  air source heat pump unitary system Fan - Cooling Coil Node, !- Air Outlet Node Name
  0.4327758054144,                        !- Design Maximum Air Flow Rate {m3/s}
  Discrete,                               !- Speed Control Method
  0.2,                                    !- Electric Power Minimum Flow Rate Fraction
  500,                                    !- Design Pressure Rise {Pa}
  1,                                      !- Motor Efficiency
  1,                                      !- Motor In Air Stream Fraction
  Autosize,                               !- Design Electric Power Consumption {W}
  PowerPerFlow,                           !- Design Power Sizing Method
  1059.44000164466,                       !- Electric Power Per Unit Flow Rate {W/(m3/s)}
  1.66667,                                !- Electric Power Per Unit Flow Rate Per Unit Pressure {W/((m3/s)-Pa)}
  0.7,                                    !- Fan Total Efficiency
  ,                                       !- Electric Power Function of Flow Fraction Curve Name
  ,                                       !- Night Ventilation Mode Pressure Rise {Pa}
  ,                                       !- Night Ventilation Mode Flow Fraction
  ,                                       !- Motor Loss Zone Name
  0,                                      !- Motor Loss Radiative Fraction
  supply fan,                             !- End-Use Subcategory
  2,                                      !- Number of Speeds
  0.7819,                                 !- Speed Flow Fraction 1
  0.47802,                                !- Speed Electric Power Fraction 1
  1,                                      !- Speed Flow Fraction 2
  1;                                      !- Speed Electric Power Fraction 2

Coil:Heating:DX:SingleSpeed,
  air source heat pump htg coil,          !- Name
  Always On Discrete,                     !- Availability Schedule Name
  7855.09666044743,                       !- Gross Rated Heating Capacity {W}
  2.506852,                               !- Gross Rated Heating COP {W/W}
  0.415663604655644,                      !- Rated Air Flow Rate {m3/s}
  773.3,                                  !- Rated Supply Fan Power Per Volume Flow Rate 2017 {W/(m3/s)}
  934.4,                                  !- Rated Supply Fan Power Per Volume Flow Rate 2023 {W/(m3/s)}
  air source heat pump unitary system Cooling Coil - Heating Coil Node, !- Air Inlet Node Name
  air source heat pump unitary system Heating Coil - Supplemental Coil Node, !- Air Outlet Node Name
  Heat-CAP-fT1,                           !- Heating Capacity Function of Temperature Curve Name
  Heat-CAP-fFF1,                          !- Heating Capacity Function of Flow Fraction Curve Name
  Heat-EIR-fT1,                           !- Energy Input Ratio Function of Temperature Curve Name
  Heat-EIR-fFF1,                          !- Energy Input Ratio Function of Flow Fraction Curve Name
  Heat-PLF-fPLR1,                         !- Part Load Fraction Correlation Curve Name
  Defrosteir,                             !- Defrost Energy Input Ratio Function of Temperature Curve Name
  -17.7777777777778,                      !- Minimum Outdoor Dry-Bulb Temperature for Compressor Operation {C}
  ,                                       !- Outdoor Dry-Bulb Temperature to Turn On Compressor {C}
  4.44444444444444,                       !- Maximum Outdoor Dry-Bulb Temperature for Defrost Operation {C}
  50,                                     !- Crankcase Heater Capacity {W}
  ,                                       !- Crankcase Heater Capacity Function of Temperature Curve Name
  10,                                     !- Maximum Outdoor Dry-Bulb Temperature for Crankcase Heater Operation {C}
  ReverseCycle,                           !- Defrost Strategy
  Timed,                                  !- Defrost Control
  0.166667,                               !- Defrost Time Period Fraction
  2000,                                   !- Resistive Defrost Heater Capacity {W}
  ,                                       !- Region number for calculating HSPF
  ,                                       !- Evaporator Air Inlet Node Name
  ,                                       !- Zone Name for Evaporator Placement
  ,                                       !- Secondary Coil Air Flow Rate {m3/s}
  ;                                       !- Secondary Coil Fan Flow Scaling Factor {m3/s}

Curve:Biquadratic,
  Heat-CAP-fT1,                           !- Name
  0.905106689142857,                      !- Coefficient1 Constant
  -0.0041461452,                          !- Coefficient2 x
  0,                                      !- Coefficient3 x**2
  0.0246428571428571,                     !- Coefficient4 y
  0,                                      !- Coefficient5 y**2
  0,                                      !- Coefficient6 x*y
  -100,                                   !- Minimum Value of x {BasedOnField A2}
  100,                                    !- Maximum Value of x {BasedOnField A2}
  -100,                                   !- Minimum Value of y {BasedOnField A3}
  100;                                    !- Maximum Value of y {BasedOnField A3}

Curve:Quadratic,
  Heat-CAP-fFF1,                          !- Name
  0.694045465,                            !- Coefficient1 Constant
  0.474207981,                            !- Coefficient2 x
  -0.168253446,                           !- Coefficient3 x**2
  0,                                      !- Minimum Value of x {BasedOnField A2}
  2,                                      !- Maximum Value of x {BasedOnField A2}
  0,                                      !- Minimum Curve Output {BasedOnField A3}
  2;                                      !- Maximum Curve Output {BasedOnField A3}

Curve:Biquadratic,
  Heat-EIR-fT1,                           !- Name
  0.716518071,                            !- Coefficient1 Constant
  0.0102759012,                           !- Coefficient2 x
  0.00046073448,                          !- Coefficient3 x**2
  -0.0064803654,                          !- Coefficient4 y
  0.000456354,                            !- Coefficient5 y**2
  -0.00069764004,                         !- Coefficient6 x*y
  -100,                                   !- Minimum Value of x {BasedOnField A2}
  100,                                    !- Maximum Value of x {BasedOnField A2}
  -100,                                   !- Minimum Value of y {BasedOnField A3}
  100;                                    !- Maximum Value of y {BasedOnField A3}

Curve:Quadratic,
  Heat-EIR-fFF1,                          !- Name
  2.185418751,                            !- Coefficient1 Constant
  -1.942827919,                           !- Coefficient2 x
  0.757409168,                            !- Coefficient3 x**2
  0,                                      !- Minimum Value of x {BasedOnField A2}
  2,                                      !- Maximum Value of x {BasedOnField A2}
  0,                                      !- Minimum Curve Output {BasedOnField A3}
  2;                                      !- Maximum Curve Output {BasedOnField A3}

Curve:Quadratic,
  Heat-PLF-fPLR1,                         !- Name
  0.8,                                    !- Coefficient1 Constant
  0.2,                                    !- Coefficient2 x
  0,                                      !- Coefficient3 x**2
  0,                                      !- Minimum Value of x {BasedOnField A2}
  1,                                      !- Maximum Value of x {BasedOnField A2}
  0.7,                                    !- Minimum Curve Output {BasedOnField A3}
  1;                                      !- Maximum Curve Output {BasedOnField A3}

Curve:Biquadratic,
  Defrosteir,                             !- Name
  0.1528,                                 !- Coefficient1 Constant
  0,                                      !- Coefficient2 x
  0,                                      !- Coefficient3 x**2
  0,                                      !- Coefficient4 y
  0,                                      !- Coefficient5 y**2
  0,                                      !- Coefficient6 x*y
  -100,                                   !- Minimum Value of x {BasedOnField A2}
  100,                                    !- Maximum Value of x {BasedOnField A2}
  -100,                                   !- Minimum Value of y {BasedOnField A3}
  100;                                    !- Maximum Value of y {BasedOnField A3}

Curve:Biquadratic,
  Cool-CAP-fT1,                           !- Name
  1.557359706,                            !- Coefficient1 Constant
  -0.0744481692,                          !- Coefficient2 x
  0.00309859668,                          !- Coefficient3 x**2
  0.0014595786,                           !- Coefficient4 y
  -4.1148e-05,                            !- Coefficient5 y**2
  -0.00042671448,                         !- Coefficient6 x*y
  -100,                                   !- Minimum Value of x {BasedOnField A2}
  100,                                    !- Maximum Value of x {BasedOnField A2}
  -100,                                   !- Minimum Value of y {BasedOnField A3}
  100;                                    !- Maximum Value of y {BasedOnField A3}

Curve:Quadratic,
  Cool-CAP-fFF1,                          !- Name
  0.718664047,                            !- Coefficient1 Constant
  0.41797409,                             !- Coefficient2 x
  -0.136638137,                           !- Coefficient3 x**2
  0,                                      !- Minimum Value of x {BasedOnField A2}
  2,                                      !- Maximum Value of x {BasedOnField A2}
  0,                                      !- Minimum Curve Output {BasedOnField A3}
  2;                                      !- Maximum Curve Output {BasedOnField A3}

Curve:Biquadratic,
  Cool-EIR-fT1,                           !- Name
  -0.350447695,                           !- Coefficient1 Constant
  0.116809893,                            !- Coefficient2 x
  -0.00339950844,                         !- Coefficient3 x**2
  -0.001226088,                           !- Coefficient4 y
  0.0006008094,                           !- Coefficient5 y**2
  -0.000466884,                           !- Coefficient6 x*y
  -100,                                   !- Minimum Value of x {BasedOnField A2}
  100,                                    !- Maximum Value of x {BasedOnField A2}
  -100,                                   !- Minimum Value of y {BasedOnField A3}
  100;                                    !- Maximum Value of y {BasedOnField A3}

Curve:Quadratic,
  Cool-EIR-fFF1,                          !- Name
  1.143487507,                            !- Coefficient1 Constant
  -0.13943972,                            !- Coefficient2 x
  -0.004047787,                           !- Coefficient3 x**2
  0,                                      !- Minimum Value of x {BasedOnField A2}
  2,                                      !- Maximum Value of x {BasedOnField A2}
  0,                                      !- Minimum Curve Output {BasedOnField A3}
  2;                                      !- Maximum Curve Output {BasedOnField A3}

Curve:Quadratic,
  Cool-PLF-fPLR1,                         !- Name
  0.8,                                    !- Coefficient1 Constant
  0.2,                                    !- Coefficient2 x
  0,                                      !- Coefficient3 x**2
  0,                                      !- Minimum Value of x {BasedOnField A2}
  1,                                      !- Maximum Value of x {BasedOnField A2}
  0.7,                                    !- Minimum Curve Output {BasedOnField A3}
  1;                                      !- Maximum Curve Output {BasedOnField A3}

Coil:Cooling:DX:SingleSpeed,
  air source heat pump clg coil,          !- Name
  Always On Discrete,                     !- Availability Schedule Name
  8290.11871685887,                       !- Gross Rated Total Cooling Capacity {W}
  0.730031800184905,                      !- Gross Rated Sensible Heat Ratio
  2.9626,                                 !- Gross Rated Cooling COP {W/W}
  0.426593577076946,                      !- Rated Air Flow Rate {m3/s}
  773.3,                                  !- Rated Evaporator Fan Power Per Volume Flow Rate 2017 {W/(m3/s)}
  934.4,                                  !- Rated Evaporator Fan Power Per Volume Flow Rate 2023 {W/(m3/s)}
  air source heat pump unitary system Fan - Cooling Coil Node, !- Air Inlet Node Name
  air source heat pump unitary system Cooling Coil - Heating Coil Node, !- Air Outlet Node Name
  Cool-CAP-fT1,                           !- Total Cooling Capacity Function of Temperature Curve Name
  Cool-CAP-fFF1,                          !- Total Cooling Capacity Function of Flow Fraction Curve Name
  Cool-EIR-fT1,                           !- Energy Input Ratio Function of Temperature Curve Name
  Cool-EIR-fFF1,                          !- Energy Input Ratio Function of Flow Fraction Curve Name
  Cool-PLF-fPLR1,                         !- Part Load Fraction Correlation Curve Name
  -25,                                    !- Minimum Outdoor Dry-Bulb Temperature for Compressor Operation {C}
  1000,                                   !- Nominal Time for Condensate Removal to Begin {s}
  1.5,                                    !- Ratio of Initial Moisture Evaporation Rate and Steady State Latent Capacity {dimensionless}
  3,                                      !- Maximum Cycling Rate {cycles/hr}
  45,                                     !- Latent Capacity Time Constant {s}
  ,                                       !- Condenser Air Inlet Node Name
  AirCooled,                              !- Condenser Type
  0.9,                                    !- Evaporative Condenser Effectiveness {dimensionless}
  Autosize,                               !- Evaporative Condenser Air Flow Rate {m3/s}
  Autosize,                               !- Evaporative Condenser Pump Rated Power Consumption {W}
  50,                                     !- Crankcase Heater Capacity {W}
  ,                                       !- Crankcase Heater Capacity Function of Temperature Curve Name
  10,                                     !- Maximum Outdoor Dry-Bulb Temperature for Crankcase Heater Operation {C}
  ,                                       !- Supply Water Storage Tank Name
  ,                                       !- Condensate Collection Water Storage Tank Name
  0,                                      !- Basin Heater Capacity {W/K}
  2;                                      !- Basin Heater Setpoint Temperature {C}

Coil:Heating:Electric,
  air source heat pump backup htg coil,   !- Name
  Always On Discrete,                     !- Availability Schedule Name
  1,                                      !- Efficiency
  12754.1599028249,                       !- Nominal Capacity {W}
  air source heat pump unitary system Heating Coil - Supplemental Coil Node, !- Air Inlet Node Name
  Node 5;                                 !- Air Outlet Node Name

AirLoopHVAC:SupplyPath,
  air source heat pump airloop Node 6 Supply Path, !- Name
  Node 6,                                 !- Supply Air Path Inlet Node Name
  AirLoopHVAC:ZoneSplitter,               !- Component Object Type 1
  air source heat pump zone splitter;     !- Component Name 1

AirLoopHVAC:ZoneSplitter,
  air source heat pump zone splitter,     !- Name
  Node 6,                                 !- Inlet Node Name
  Node 10;                                !- Outlet Node Name 1

AirLoopHVAC:ReturnPath,
  air source heat pump airloop Return Path, !- Name
  Node 7,                                 !- Return Air Path Outlet Node Name
  AirLoopHVAC:ReturnPlenum,               !- Component Object Type 1
  Air Loop HVAC Return Plenum 1,          !- Component Name 1
  AirLoopHVAC:ZoneMixer,                  !- Component Object Type 2
  air source heat pump zone mixer;        !- Component Name 2

AirLoopHVAC:ReturnPlenum,
  Air Loop HVAC Return Plenum 1,          !- Name
  air source heat pump airloop ret air zone, !- Zone Name
  Node 23,                                !- Zone Node Name
  Node 25,                                !- Outlet Node Name
  ,                                       !- Induced Air Outlet Node or NodeList Name
  Node 9;                                 !- Inlet Node Name 1

AirLoopHVAC:ZoneMixer,
  air source heat pump zone mixer,        !- Name
  Node 7,                                 !- Outlet Node Name
  Node 25;                                !- Inlet Node Name 1

PlantLoop,
  dhw loop,                               !- Name
  Water,                                  !- Fluid Type
  ,                                       !- User Defined Fluid Type
  dhw loop Operation Schemes,             !- Plant Equipment Operation Scheme Name
  Node 12,                                !- Loop Temperature Setpoint Node Name
  100,                                    !- Maximum Loop Temperature {C}
  0,                                      !- Minimum Loop Temperature {C}
  0.01,                                   !- Maximum Loop Flow Rate {m3/s}
  0,                                      !- Minimum Loop Flow Rate {m3/s}
  0.003,                                  !- Plant Loop Volume {m3}
  Node 11,                                !- Plant Side Inlet Node Name
  Node 12,                                !- Plant Side Outlet Node Name
  dhw loop Supply Branches,               !- Plant Side Branch List Name
  dhw loop Supply Connector List,         !- Plant Side Connector List Name
  Node 14,                                !- Demand Side Inlet Node Name
  Node 15,                                !- Demand Side Outlet Node Name
  dhw loop Demand Branches,               !- Demand Side Branch List Name
  dhw loop Demand Connector List,         !- Demand Side Connector List Name
  Optimal,                                !- Load Distribution Scheme
  ,                                       !- Availability Manager List Name
  SingleSetpoint,                         !- Plant Loop Demand Calculation Scheme
  None;                                   !- Common Pipe Simulation

Sizing:Plant,
  dhw loop,                               !- Plant or Condenser Loop Name
  Heating,                                !- Loop Type
  51.6666666666667,                       !- Design Loop Exit Temperature {C}
  5.55555555555556,                       !- Loop Design Temperature Difference {deltaC}
  NonCoincident,                          !- Sizing Option
  1,                                      !- Zone Timesteps in Averaging Window
  None;                                   !- Coincident Sizing Factor Mode

BranchList,
  dhw loop Supply Branches,               !- Name
  dhw loop Supply Inlet Branch,           !- Branch Name 1
  dhw loop Supply Branch 1,               !- Branch Name 2
  dhw loop Supply Branch 2,               !- Branch Name 3
  dhw loop Supply Outlet Branch;          !- Branch Name 4

ConnectorList,
  dhw loop Supply Connector List,         !- Name
  Connector:Splitter,                     !- Connector Object Type 1
  dhw loop Supply Splitter,               !- Connector Name 1
  Connector:Mixer,                        !- Connector Object Type 2
  dhw loop Supply Mixer;                  !- Connector Name 2

Connector:Splitter,
  dhw loop Supply Splitter,               !- Name
  dhw loop Supply Inlet Branch,           !- Inlet Branch Name
  dhw loop Supply Branch 1,               !- Outlet Branch Name 1
  dhw loop Supply Branch 2;               !- Outlet Branch Name 2

Connector:Mixer,
  dhw loop Supply Mixer,                  !- Name
  dhw loop Supply Outlet Branch,          !- Outlet Branch Name
  dhw loop Supply Branch 1,               !- Inlet Branch Name 1
  dhw loop Supply Branch 2;               !- Inlet Branch Name 2

Branch,
  dhw loop Supply Inlet Branch,           !- Name
  ,                                       !- Pressure Drop Curve Name
  Pump:VariableSpeed,                     !- Component Object Type 1
  dhw loop pump,                          !- Component Name 1
  Node 11,                                !- Component Inlet Node Name 1
  Node 19;                                !- Component Outlet Node Name 1

Pump:VariableSpeed,
  dhw loop pump,                          !- Name
  Node 11,                                !- Inlet Node Name
  Node 19,                                !- Outlet Node Name
  0.01,                                   !- Design Maximum Flow Rate {m3/s}
  1,                                      !- Design Pump Head {Pa}
  0,                                      !- Design Power Consumption {W}
  0.85,                                   !- Motor Efficiency
  0,                                      !- Fraction of Motor Inefficiencies to Fluid Stream
  0,                                      !- Coefficient 1 of the Part Load Performance Curve
  1,                                      !- Coefficient 2 of the Part Load Performance Curve
  0,                                      !- Coefficient 3 of the Part Load Performance Curve
  0,                                      !- Coefficient 4 of the Part Load Performance Curve
  0,                                      !- Design Minimum Flow Rate {m3/s}
  Intermittent,                           !- Pump Control Type
  ,                                       !- Pump Flow Rate Schedule Name
  ,                                       !- Pump Curve Name
  ,                                       !- Impeller Diameter {m}
  ,                                       !- VFD Control Type
  ,                                       !- Pump RPM Schedule Name
  ,                                       !- Minimum Pressure Schedule {Pa}
  ,                                       !- Maximum Pressure Schedule {Pa}
  ,                                       !- Minimum RPM Schedule {rev/min}
  ,                                       !- Maximum RPM Schedule {rev/min}
  ,                                       !- Zone Name
  0.5,                                    !- Skin Loss Radiative Fraction
  PowerPerFlowPerPressure,                !- Design Power Sizing Method
  348701.1,                               !- Design Electric Power per Unit Flow Rate {W/(m3/s)}
  1.282051282,                            !- Design Shaft Power per Unit Flow Rate per Unit Head {W/((m3/s)-Pa)}
  0,                                      !- Design Minimum Flow Rate Fraction
  General;                                !- End-Use Subcategory

Branch,
  dhw loop Supply Branch 1,               !- Name
  ,                                       !- Pressure Drop Curve Name
  Pipe:Adiabatic,                         !- Component Object Type 1
  Pipe Adiabatic 1,                       !- Component Name 1
  Node 13,                                !- Component Inlet Node Name 1
  Node 17;                                !- Component Outlet Node Name 1

Pipe:Adiabatic,
  Pipe Adiabatic 1,                       !- Name
  Node 13,                                !- Inlet Node Name
  Node 17;                                !- Outlet Node Name

Branch,
  dhw loop Supply Branch 2,               !- Name
  ,                                       !- Pressure Drop Curve Name
  WaterHeater:HeatPump:WrappedCondenser,  !- Component Object Type 1
  water heater hpwh,                      !- Component Name 1
  Node 20,                                !- Component Inlet Node Name 1
  Node 21;                                !- Component Outlet Node Name 1

WaterHeater:Stratified,
  water heater tank,                      !- Name
  Domestic Hot Water,                     !- End-Use Subcategory
  0.224853459967809,                      !- Tank Volume {m3}
  1.3343,                                 !- Tank Height {m}
  VerticalCylinder,                       !- Tank Shape
  ,                                       !- Tank Perimeter {m}
  90,                                     !- Maximum Temperature Limit {C}
  MasterSlave,                            !- Heater Priority Control
  water heater TopElementSetpoint,        !- Heater 1 Setpoint Temperature Schedule Name
  18.5,                                   !- Heater 1 Deadband Temperature Difference {deltaC}
  4500.10628249447,                       !- Heater 1 Capacity {W}
  1.05632083333333,                       !- Heater 1 Height {m}
  water heater BottomElementSetpoint,     !- Heater 2 Setpoint Temperature Schedule Name
  3.89,                                   !- Heater 2 Deadband Temperature Difference {deltaC}
  4500.10628249447,                       !- Heater 2 Capacity {W}
  0.277979166666667,                      !- Heater 2 Height {m}
  Electricity,                            !- Heater Fuel Type
  1,                                      !- Heater Thermal Efficiency
  3,                                      !- Off Cycle Parasitic Fuel Consumption Rate {W}
  Electricity,                            !- Off Cycle Parasitic Fuel Type
  0,                                      !- Off Cycle Parasitic Heat Fraction to Tank
  0,                                      !- Off Cycle Parasitic Height {m}
  3,                                      !- On Cycle Parasitic Fuel Consumption Rate {W}
  Electricity,                            !- On Cycle Parasitic Fuel Type
  0,                                      !- On Cycle Parasitic Heat Fraction to Tank
  0,                                      !- On Cycle Parasitic Height {m}
  Schedule,                               !- Ambient Temperature Indicator
  water heater Tamb act,                  !- Ambient Temperature Schedule Name
  ,                                       !- Ambient Temperature Zone Name
  ,                                       !- Ambient Temperature Outdoor Air Node Name
  0.925959286188401,                      !- Uniform Skin Loss Coefficient per Unit Area to Ambient Temperature {W/m2-K}
  1,                                      !- Skin Loss Fraction to Zone
  0,                                      !- Off Cycle Flue Loss Coefficient to Ambient Temperature {W/K}
  1,                                      !- Off Cycle Flue Loss Fraction to Zone
  ,                                       !- Peak Use Flow Rate {m3/s}
  ,                                       !- Use Flow Rate Fraction Schedule Name
  ,                                       !- Cold Water Supply Temperature Schedule Name
  Node 20,                                !- Use Side Inlet Node Name
  Node 21,                                !- Use Side Outlet Node Name
  1,                                      !- Use Side Effectiveness
  0,                                      !- Use Side Inlet Height {m}
  Autocalculate,                          !- Use Side Outlet Height {m}
  ,                                       !- Source Side Inlet Node Name
  ,                                       !- Source Side Outlet Node Name
  1,                                      !- Source Side Effectiveness
  0,                                      !- Source Side Inlet Height {m}
  0,                                      !- Source Side Outlet Height {m}
  Fixed,                                  !- Inlet Mode
  0.00374132212924807,                    !- Use Side Design Flow Rate {m3/s}
  0,                                      !- Source Side Design Flow Rate {m3/s}
  1.5,                                    !- Indirect Water Heating Recovery Time {hr}
  6,                                      !- Number of Nodes
  0,                                      !- Additional Destratification Conductivity {W/m-K}
  0,                                      !- Node 1 Additional Loss Coefficient {W/K}
  0,                                      !- Node 2 Additional Loss Coefficient {W/K}
  0,                                      !- Node 3 Additional Loss Coefficient {W/K}
  0,                                      !- Node 4 Additional Loss Coefficient {W/K}
  0,                                      !- Node 5 Additional Loss Coefficient {W/K}
  0,                                      !- Node 6 Additional Loss Coefficient {W/K}
  ,                                       !- Node 7 Additional Loss Coefficient {W/K}
  ,                                       !- Node 8 Additional Loss Coefficient {W/K}
  ,                                       !- Node 9 Additional Loss Coefficient {W/K}
  ,                                       !- Node 10 Additional Loss Coefficient {W/K}
  ,                                       !- Node 11 Additional Loss Coefficient {W/K}
  ,                                       !- Node 12 Additional Loss Coefficient {W/K}
  ;                                       !- Source Side Flow Control Mode

WaterHeater:Sizing,
  water heater tank,                      !- WaterHeater Name
  PeakDraw,                               !- Design Mode
  0.538503,                               !- Time Storage Can Meet Peak Draw {hr}
  0,                                      !- Time for Tank Recovery {hr}
  1;                                      !- Nominal Tank Volume for Autosizing Plant Connections {m3}

WaterHeater:HeatPump:WrappedCondenser,
  water heater hpwh,                      !- Name
  ,                                       !- Availability Schedule Name
  water heater setpoint,                  !- Compressor Setpoint Temperature Schedule Name
  3.89,                                   !- Dead Band Temperature Difference {deltaC}
  0.0555958333333333,                     !- Condenser Bottom Location {m}
  0.722745833333333,                      !- Condenser Top Location {m}
  0.0854224872192,                        !- Evaporator Air Flow Rate {m3/s}
  Schedule,                               !- Inlet Air Configuration
  water heater hpwh Inlet,                !- Air Inlet Node Name
  water heater hpwh Outlet,               !- Air Outlet Node Name
  ,                                       !- Outdoor Air Node Name
  ,                                       !- Exhaust Air Node Name
  water heater Tamb act,                  !- Inlet Air Temperature Schedule Name
  water heater RHamb act,                 !- Inlet Air Humidity Schedule Name
  ,                                       !- Inlet Air Zone Name
  WaterHeater:Stratified,                 !- Tank Object Type
  water heater tank,                      !- Tank Name
  Node 20,                                !- Tank Use Side Inlet Node Name
  Node 21,                                !- Tank Use Side Outlet Node Name
  Coil:WaterHeating:AirToWaterHeatPump:Wrapped, !- DX Coil Object Type
  water heater coil,                      !- DX Coil Name
  5.55555555555556,                       !- Minimum Inlet Air Temperature for Compressor Operation {C}
  48.8888888888889,                       !- Maximum Inlet Air Temperature for Compressor Operation {C}
  Schedule,                               !- Compressor Location
  water heater Tamb act,                  !- Compressor Ambient Temperature Schedule Name
  Fan:SystemModel,                        !- Fan Object Type
  water heater fan,                       !- Fan Name
  DrawThrough,                            !- Fan Placement
  0,                                      !- On Cycle Parasitic Electric Load {W}
  0,                                      !- Off Cycle Parasitic Electric Load {W}
  Outdoors,                               !- Parasitic Heat Rejection Location
  ,                                       !- Inlet Air Mixer Node Name
  ,                                       !- Outlet Air Splitter Node Name
  Always On Discrete,                     !- Inlet Air Mixer Schedule Name
  MutuallyExclusive,                      !- Tank Element Control Logic
  1.05632083333333,                       !- Control Sensor 1 Height In Stratified Tank {m}
  0.75,                                   !- Control Sensor 1 Weight {dimensionless}
  0.389170833333333;                      !- Control Sensor 2 Height In Stratified Tank {m}

Coil:WaterHeating:AirToWaterHeatPump:Wrapped,
  water heater coil,                      !- Name
  2110.99091845052,                       !- Rated Heating Capacity {W}
  4.222255,                               !- Rated COP {W/W}
  0.88,                                   !- Rated Sensible Heat Ratio
  19.7222222222222,                       !- Rated Evaporator Inlet Air Dry-Bulb Temperature {C}
  13.5609953322795,                       !- Rated Evaporator Inlet Air Wet-Bulb Temperature {C}
  48.89,                                  !- Rated Condenser Water Temperature {C}
  0.0854224872192,                        !- Rated Evaporator Air Flow Rate {m3/s}
  Yes,                                    !- Evaporator Fan Power Included in Rated COP
  water heater hpwh Inlet,                !- Evaporator Air Inlet Node Name
  water heater hpwh Evap Outlet - Fan Inlet, !- Evaporator Air Outlet Node Name
  0,                                      !- Crankcase Heater Capacity {W}
  ,                                       !- Crankcase Heater Capacity Function of Temperature Curve Name
  0,                                      !- Maximum Ambient Temperature for Crankcase Heater Operation {C}
  WetBulbTemperature,                     !- Evaporator Air Temperature Type for Curve Objects
  HPWH-Cap-fT,                            !- Heating Capacity Function of Temperature Curve Name
  HPWH-Htg-Cap-FF,                        !- Heating Capacity Function of Air Flow Fraction Curve Name
  HPWH-COP-fT,                            !- Heating COP Function of Temperature Curve Name
  HPWH-Htg-COP-FF,                        !- Heating COP Function of Air Flow Fraction Curve Name
  HPWH-COP-fPLR;                          !- Part Load Fraction Correlation Curve Name

Curve:Biquadratic,
  HPWH-Cap-fT,                            !- Name
  0.563,                                  !- Coefficient1 Constant
  0.0437,                                 !- Coefficient2 x
  3.9e-05,                                !- Coefficient3 x**2
  0.0055,                                 !- Coefficient4 y
  -0.000148,                              !- Coefficient5 y**2
  -0.000145,                              !- Coefficient6 x*y
  0,                                      !- Minimum Value of x {BasedOnField A2}
  100,                                    !- Maximum Value of x {BasedOnField A2}
  0,                                      !- Minimum Value of y {BasedOnField A3}
  100;                                    !- Maximum Value of y {BasedOnField A3}

Curve:Cubic,
  HPWH-Htg-Cap-FF,                        !- Name
  1,                                      !- Coefficient1 Constant
  0,                                      !- Coefficient2 x
  0,                                      !- Coefficient3 x**2
  0,                                      !- Coefficient4 x**3
  0,                                      !- Minimum Value of x {BasedOnField A2}
  100;                                    !- Maximum Value of x {BasedOnField A2}

Curve:Biquadratic,
  HPWH-COP-fT,                            !- Name
  1.1332,                                 !- Coefficient1 Constant
  0.063,                                  !- Coefficient2 x
  -9.79e-05,                              !- Coefficient3 x**2
  -0.00972,                               !- Coefficient4 y
  -2.14e-05,                              !- Coefficient5 y**2
  -0.000686,                              !- Coefficient6 x*y
  0,                                      !- Minimum Value of x {BasedOnField A2}
  100,                                    !- Maximum Value of x {BasedOnField A2}
  0,                                      !- Minimum Value of y {BasedOnField A3}
  100;                                    !- Maximum Value of y {BasedOnField A3}

Curve:Cubic,
  HPWH-Htg-COP-FF,                        !- Name
  1,                                      !- Coefficient1 Constant
  0,                                      !- Coefficient2 x
  0,                                      !- Coefficient3 x**2
  0,                                      !- Coefficient4 x**3
  0,                                      !- Minimum Value of x {BasedOnField A2}
  100;                                    !- Maximum Value of x {BasedOnField A2}

Curve:Cubic,
  HPWH-COP-fPLR,                          !- Name
  1,                                      !- Coefficient1 Constant
  0,                                      !- Coefficient2 x
  0,                                      !- Coefficient3 x**2
  0,                                      !- Coefficient4 x**3
  0,                                      !- Minimum Value of x {BasedOnField A2}
  1;                                      !- Maximum Value of x {BasedOnField A2}

Fan:SystemModel,
  water heater fan,                       !- Name
  Always On Discrete,                     !- Availability Schedule Name
  water heater hpwh Evap Outlet - Fan Inlet, !- Air Inlet Node Name
  water heater hpwh Outlet,               !- Air Outlet Node Name
  0.0854224872192,                        !- Design Maximum Air Flow Rate {m3/s}
  Discrete,                               !- Speed Control Method
  0.2,                                    !- Electric Power Minimum Flow Rate Fraction
  500,                                    !- Design Pressure Rise {Pa}
  1,                                      !- Motor Efficiency
  1,                                      !- Motor In Air Stream Fraction
  Autosize,                               !- Design Electric Power Consumption {W}
  PowerPerFlow,                           !- Design Power Sizing Method
  97.8922561519664,                       !- Electric Power Per Unit Flow Rate {W/(m3/s)}
  1.66667,                                !- Electric Power Per Unit Flow Rate Per Unit Pressure {W/((m3/s)-Pa)}
  0.7,                                    !- Fan Total Efficiency
  ,                                       !- Electric Power Function of Flow Fraction Curve Name
  ,                                       !- Night Ventilation Mode Pressure Rise {Pa}
  ,                                       !- Night Ventilation Mode Flow Fraction
  ,                                       !- Motor Loss Zone Name
  0,                                      !- Motor Loss Radiative Fraction
  Domestic Hot Water,                     !- End-Use Subcategory
  1;                                      !- Number of Speeds

Branch,
  dhw loop Supply Outlet Branch,          !- Name
  ,                                       !- Pressure Drop Curve Name
  Pipe:Adiabatic,                         !- Component Object Type 1
  Pipe Adiabatic 2,                       !- Component Name 1
  Node 18,                                !- Component Inlet Node Name 1
  Node 12;                                !- Component Outlet Node Name 1

Pipe:Adiabatic,
  Pipe Adiabatic 2,                       !- Name
  Node 18,                                !- Inlet Node Name
  Node 12;                                !- Outlet Node Name

SetpointManager:Scheduled,
  Setpoint Manager Scheduled 1,           !- Name
  Temperature,                            !- Control Variable
  dhw temp,                               !- Schedule Name
  Node 12;                                !- Setpoint Node or NodeList Name

BranchList,
  dhw loop Demand Branches,               !- Name
  dhw loop Demand Inlet Branch,           !- Branch Name 1
  dhw loop Demand Branch 1,               !- Branch Name 2
  dhw loop Demand Bypass Branch,          !- Branch Name 3
  dhw loop Demand Outlet Branch;          !- Branch Name 4

ConnectorList,
  dhw loop Demand Connector List,         !- Name
  Connector:Splitter,                     !- Connector Object Type 1
  dhw loop Demand Splitter,               !- Connector Name 1
  Connector:Mixer,                        !- Connector Object Type 2
  dhw loop Demand Mixer;                  !- Connector Name 2

Connector:Splitter,
  dhw loop Demand Splitter,               !- Name
  dhw loop Demand Inlet Branch,           !- Inlet Branch Name
  dhw loop Demand Branch 1,               !- Outlet Branch Name 1
  dhw loop Demand Bypass Branch;          !- Outlet Branch Name 2

Connector:Mixer,
  dhw loop Demand Mixer,                  !- Name
  dhw loop Demand Outlet Branch,          !- Outlet Branch Name
  dhw loop Demand Branch 1,               !- Inlet Branch Name 1
  dhw loop Demand Bypass Branch;          !- Inlet Branch Name 2

Branch,
  dhw loop Demand Inlet Branch,           !- Name
  ,                                       !- Pressure Drop Curve Name
  Pipe:Adiabatic,                         !- Component Object Type 1
  dhw loop Demand Inlet Pipe,             !- Component Name 1
  Node 14,                                !- Component Inlet Node Name 1
  dhw loop Demand Inlet Pipe Node;        !- Component Outlet Node Name 1

Pipe:Adiabatic,
  dhw loop Demand Inlet Pipe,             !- Name
  Node 14,                                !- Inlet Node Name
  dhw loop Demand Inlet Pipe Node;        !- Outlet Node Name

Branch,
  dhw loop Demand Branch 1,               !- Name
  ,                                       !- Pressure Drop Curve Name
  WaterUse:Connections,                   !- Component Object Type 1
  Water Use Connections 1,                !- Component Name 1
  Node 16,                                !- Component Inlet Node Name 1
  Node 22;                                !- Component Outlet Node Name 1

WaterUse:Connections,
  Water Use Connections 1,                !- Name
  Node 16,                                !- Inlet Node Name
  Node 22,                                !- Outlet Node Name
  ,                                       !- Supply Water Storage Tank Name
  ,                                       !- Reclamation Water Storage Tank Name
  ,                                       !- Hot Water Supply Temperature Schedule Name
  ,                                       !- Cold Water Supply Temperature Schedule Name
  None,                                   !- Drain Water Heat Exchanger Type
  Plant,                                  !- Drain Water Heat Exchanger Destination
  ,                                       !- Drain Water Heat Exchanger U-Factor Times Area {W/K}
  dhw fixtures,                           !- Water Use Equipment Name 1
  dhw distribution waste,                 !- Water Use Equipment Name 2
  clothes washer;                         !- Water Use Equipment Name 3

WaterUse:Equipment,
  dhw fixtures,                           !- Name
  dhw fixtures,                           !- End-Use Subcategory
  5.62275705700599e-05,                   !- Peak Flow Rate {m3/s}
  hot_water_fixtures,                     !- Flow Rate Fraction Schedule Name
  mixed water temperature schedule;       !- Target Temperature Schedule Name

WaterUse:Equipment,
  dhw distribution waste,                 !- Name
  dhw distribution waste,                 !- End-Use Subcategory
  1.52737177993808e-05,                   !- Peak Flow Rate {m3/s}
  hot_water_fixtures,                     !- Flow Rate Fraction Schedule Name
  mixed water temperature schedule;       !- Target Temperature Schedule Name

WaterUse:Equipment,
  clothes washer,                         !- Name
  clothes washer,                         !- End-Use Subcategory
  8.22119122203776e-06,                   !- Peak Flow Rate {m3/s}
  hot_water_clothes_washer;               !- Flow Rate Fraction Schedule Name

Branch,
  dhw loop Demand Bypass Branch,          !- Name
  ,                                       !- Pressure Drop Curve Name
  Pipe:Adiabatic,                         !- Component Object Type 1
  dhw loop Demand Bypass Pipe,            !- Component Name 1
  dhw loop Demand Bypass Pipe Inlet Node, !- Component Inlet Node Name 1
  dhw loop Demand Bypass Pipe Outlet Node; !- Component Outlet Node Name 1

Pipe:Adiabatic,
  dhw loop Demand Bypass Pipe,            !- Name
  dhw loop Demand Bypass Pipe Inlet Node, !- Inlet Node Name
  dhw loop Demand Bypass Pipe Outlet Node; !- Outlet Node Name

Branch,
  dhw loop Demand Outlet Branch,          !- Name
  ,                                       !- Pressure Drop Curve Name
  Pipe:Adiabatic,                         !- Component Object Type 1
  dhw loop Demand Outlet Pipe,            !- Component Name 1
  dhw loop Demand Outlet Pipe Node,       !- Component Inlet Node Name 1
  Node 15;                                !- Component Outlet Node Name 1

Pipe:Adiabatic,
  dhw loop Demand Outlet Pipe,            !- Name
  dhw loop Demand Outlet Pipe Node,       !- Inlet Node Name
  Node 15;                                !- Outlet Node Name

PlantEquipmentOperationSchemes,
  dhw loop Operation Schemes,             !- Name
  PlantEquipmentOperation:HeatingLoad,    !- Control Scheme Object Type 1
  dhw loop Heating Operation Scheme,      !- Control Scheme Name 1
  Always On Discrete;                     !- Control Scheme Schedule Name 1

PlantEquipmentOperation:HeatingLoad,
  dhw loop Heating Operation Scheme,      !- Name
  0,                                      !- Load Range Lower Limit 1 {W}
  1000000000,                             !- Load Range Upper Limit 1 {W}
  dhw loop Heating Equipment List;        !- Range Equipment List Name 1

PlantEquipmentList,
  dhw loop Heating Equipment List,        !- Name
  WaterHeater:HeatPump:WrappedCondenser,  !- Equipment Object Type 1
  water heater hpwh;                      !- Equipment Name 1

RunPeriodControl:DaylightSavingTime,
  Mar 11,                                 !- Start Date
  Nov 4;                                  !- End Date

OutputControl:Files,
  No,                                     !- Output CSV
  No,                                     !- Output MTR
  No,                                     !- Output ESO
  No,                                     !- Output EIO
  No,                                     !- Output Tabular
  No,                                     !- Output SQLite
  Yes,                                    !- Output JSON
  No,                                     !- Output AUDIT
  Yes,                                    !- Output Space Sizing
  Yes,                                    !- Output Zone Sizing
  Yes,                                    !- Output System Sizing
  Yes,                                    !- Output DXF
  No,                                     !- Output BND
  No,                                     !- Output RDD
  No,                                     !- Output MDD
  No,                                     !- Output MTD
  Yes,                                    !- Output END
  No,                                     !- Output SHD
  Yes,                                    !- Output DFS
  Yes,                                    !- Output GLHE
  Yes,                                    !- Output DelightIn
  Yes,                                    !- Output DelightELdmp
  Yes,                                    !- Output DelightDFdmp
  Yes,                                    !- Output EDD
  Yes,                                    !- Output DBG
  No,                                     !- Output PerfLog
  Yes,                                    !- Output SLN
  Yes,                                    !- Output SCI
  Yes,                                    !- Output WRL
  Yes,                                    !- Output Screen
  Yes,                                    !- Output ExtShd
  Yes;                                    !- Output Tarcog

Output:Diagnostics,
  DisplayAdvancedReportVariables;         !- Key 1

Output:JSON,
  TimeSeriesAndTabular,                   !- Option Type
  No,                                     !- Output JSON
  No,                                     !- Output CBOR
  Yes;                                    !- Output MessagePack

PerformancePrecisionTradeoffs,
  No,                                     !- Use Coil Direct Solutions
  CarrollMRT,                             !- Zone Radiant Exchange Algorithm
  ,                                       !- Override Mode
  ,                                       !- MaxZoneTempDiff
  ,                                       !- MaxAllowedDelTemp
  No;                                     !- Use Representative Surfaces for Calculations

Site:Location,
  Portland Intl Arpt_OR,                  !- Name
  45.59,                                  !- Latitude {deg}
  -122.6,                                 !- Longitude {deg}
  -8,                                     !- Time Zone {hr}
  33,                                     !- Elevation {m}
  Yes;                                    !- Keep Site Location Information

Site:GroundTemperature:Shallow,
  10.2558044641633,                       !- January Surface Ground Temperature {C}
  8.96328398056839,                       !- February Surface Ground Temperature {C}
  8.85977430498792,                       !- March Surface Ground Temperature {C}
  9.47314131759795,                       !- April Surface Ground Temperature {C}
  11.9354680782591,                       !- May Surface Ground Temperature {C}
  14.3863242762951,                       !- June Surface Ground Temperature {C}
  16.5110856158237,                       !- July Surface Ground Temperature {C}
  17.857069666975,                        !- August Surface Ground Temperature {C}
  17.9714184050852,                       !- September Surface Ground Temperature {C}
  16.8766866085166,                       !- October Surface Ground Temperature {C}
  14.8061079306247,                       !- November Surface Ground Temperature {C}
  12.4304340182317;                       !- December Surface Ground Temperature {C}

Site:WaterMainsTemperature,
  Schedule,                               !- Calculation Method
  mains temperature schedule;             !- Temperature Schedule Name

Foundation:Kiva,
  Foundation Kiva 1,                      !- Name
  13.4258307666913,                       !- Initial Indoor Air Temperature {C}
  ,                                       !- Interior Horizontal Insulation Material Name
  ,                                       !- Interior Horizontal Insulation Depth {m}
  ,                                       !- Interior Horizontal Insulation Width {m}
  ,                                       !- Interior Vertical Insulation Material Name
  ,                                       !- Interior Vertical Insulation Depth {m}
  ,                                       !- Exterior Horizontal Insulation Material Name
  ,                                       !- Exterior Horizontal Insulation Depth {m}
  ,                                       !- Exterior Horizontal Insulation Width {m}
  ,                                       !- Exterior Vertical Insulation Material Name
  ,                                       !- Exterior Vertical Insulation Depth {m}
  0.1016,                                 !- Wall Height Above Grade {m}
  0.2032;                                 !- Wall Depth Below Slab {m}

Foundation:Kiva,
  Foundation Kiva 2,                      !- Name
  7.80546991224442,                       !- Initial Indoor Air Temperature {C}
  ,                                       !- Interior Horizontal Insulation Material Name
  ,                                       !- Interior Horizontal Insulation Depth {m}
  ,                                       !- Interior Horizontal Insulation Width {m}
  ,                                       !- Interior Vertical Insulation Material Name
  ,                                       !- Interior Vertical Insulation Depth {m}
  ,                                       !- Exterior Horizontal Insulation Material Name
  ,                                       !- Exterior Horizontal Insulation Depth {m}
  ,                                       !- Exterior Horizontal Insulation Width {m}
  ,                                       !- Exterior Vertical Insulation Material Name
  ,                                       !- Exterior Vertical Insulation Depth {m}
  0.3048,                                 !- Wall Height Above Grade {m}
  0.2032;                                 !- Wall Depth Below Slab {m}

Foundation:Kiva:Settings,
  1.3848,                                 !- Soil Conductivity {W/m-K}
  1842.3,                                 !- Soil Density {kg/m3}
  418.7,                                  !- Soil Specific Heat {J/kg-K}
  0.9,                                    !- Ground Solar Absorptivity {dimensionless}
  0.9,                                    !- Ground Thermal Absorptivity {dimensionless}
  0.03,                                   !- Ground Surface Roughness {m}
  40,                                     !- Far-Field Width {m}
  ZeroFlux,                               !- Deep-Ground Boundary Condition
  40,                                     !- Deep-Ground Depth {m}
  0.2,                                    !- Minimum Cell Dimension {m}
  3,                                      !- Maximum Cell Growth Coefficient {dimensionless}
  Timestep;                               !- Simulation Timestep

Exterior:Lights,
  exterior lighting,                      !- Name
  exterior lighting schedule,             !- Schedule Name
  42.5523287671233,                       !- Design Level {W}
  ,                                       !- Control Option
  exterior lighting;                      !- End-Use Subcategory

Curve:Biquadratic,
  HPWH-Htg-Cap-fT,                        !- Name
  0.563,                                  !- Coefficient1 Constant
  0.0437,                                 !- Coefficient2 x
  3.9e-05,                                !- Coefficient3 x**2
  0.0055,                                 !- Coefficient4 y
  -0.000148,                              !- Coefficient5 y**2
  -0.000145,                              !- Coefficient6 x*y
  0,                                      !- Minimum Value of x {BasedOnField A2}
  100,                                    !- Maximum Value of x {BasedOnField A2}
  0,                                      !- Minimum Value of y {BasedOnField A3}
  100,                                    !- Maximum Value of y {BasedOnField A3}
  0;                                      !- Minimum Curve Output {BasedOnField A4}

Curve:Biquadratic,
  HPWH-Htg-COP-fT,                        !- Name
  1.1332,                                 !- Coefficient1 Constant
  0.063,                                  !- Coefficient2 x
  -9.79e-05,                              !- Coefficient3 x**2
  -0.00972,                               !- Coefficient4 y
  -2.14e-05,                              !- Coefficient5 y**2
  -0.000686,                              !- Coefficient6 x*y
  0,                                      !- Minimum Value of x {BasedOnField A2}
  100,                                    !- Maximum Value of x {BasedOnField A2}
  0,                                      !- Minimum Value of y {BasedOnField A3}
  100;                                    !- Maximum Value of y {BasedOnField A3}

Meter:Custom,
  Electricity:Net,                        !- Name
  Electricity,                            !- Resource Type
  ,                                       !- Key Name 1
  Electricity:Facility;                   !- Output Variable or Meter Name 1

Meter:Custom,
  Electricity:Total,                      !- Name
  Electricity,                            !- Resource Type
  ,                                       !- Key Name 1
  Electricity:Facility;                   !- Output Variable or Meter Name 1

EnergyManagementSystem:GlobalVariable,
  air_source_heat_pump_airloop_0_DuctImbalLkExhFanEquivCond; !- Erl Variable Name 1

EnergyManagementSystem:GlobalVariable,
  air_source_heat_pump_airloop_0_DuctImbalLkExhFanEquivDZ; !- Erl Variable Name 1

EnergyManagementSystem:GlobalVariable,
  air_source_heat_pump_airloop_0_DuctImbalLkSupFanEquivCond; !- Erl Variable Name 1

EnergyManagementSystem:GlobalVariable,
  air_source_heat_pump_airloop_0_DuctImbalLkSupFanEquivDZ; !- Erl Variable Name 1

EnergyManagementSystem:GlobalVariable,
  air_source_heat_pump_airloop_0_DZ_T;    !- Erl Variable Name 1

EnergyManagementSystem:GlobalVariable,
  air_source_heat_pump_airloop_0_DZ_W;    !- Erl Variable Name 1

EnergyManagementSystem:GlobalVariable,
  air_source_heat_pump_airloop_0_RetCondToDZ; !- Erl Variable Name 1

EnergyManagementSystem:GlobalVariable,
  air_source_heat_pump_airloop_0_RetCondToRP; !- Erl Variable Name 1

EnergyManagementSystem:GlobalVariable,
  air_source_heat_pump_airloop_0_RetLatLkToRP; !- Erl Variable Name 1

EnergyManagementSystem:GlobalVariable,
  air_source_heat_pump_airloop_0_RetSensLkToRP; !- Erl Variable Name 1

EnergyManagementSystem:GlobalVariable,
  air_source_heat_pump_airloop_0_SupCondToDZ; !- Erl Variable Name 1

EnergyManagementSystem:GlobalVariable,
  air_source_heat_pump_airloop_0_SupCondToLv; !- Erl Variable Name 1

EnergyManagementSystem:GlobalVariable,
  air_source_heat_pump_airloop_0_SupLatLkToCond; !- Erl Variable Name 1

EnergyManagementSystem:GlobalVariable,
  air_source_heat_pump_airloop_0_SupLatLkToDZ; !- Erl Variable Name 1

EnergyManagementSystem:GlobalVariable,
  air_source_heat_pump_airloop_0_SupSensLkToCond; !- Erl Variable Name 1

EnergyManagementSystem:GlobalVariable,
  air_source_heat_pump_airloop_0_SupSensLkToDZ; !- Erl Variable Name 1

EnergyManagementSystem:GlobalVariable,
  air_source_heat_pump_airloop_0_ZoneMixCondToDZ; !- Erl Variable Name 1

EnergyManagementSystem:GlobalVariable,
  air_source_heat_pump_airloop_0_ZoneMixDZToCond; !- Erl Variable Name 1

EnergyManagementSystem:GlobalVariable,
  air_source_heat_pump_airloop_AH_MFR;    !- Erl Variable Name 1

EnergyManagementSystem:GlobalVariable,
  air_source_heat_pump_airloop_AH_Tout;   !- Erl Variable Name 1

EnergyManagementSystem:GlobalVariable,
  air_source_heat_pump_airloop_AH_VFR;    !- Erl Variable Name 1

EnergyManagementSystem:GlobalVariable,
  air_source_heat_pump_airloop_AH_Wout;   !- Erl Variable Name 1

EnergyManagementSystem:GlobalVariable,
  air_source_heat_pump_airloop_Fan_RTF;   !- Erl Variable Name 1

EnergyManagementSystem:GlobalVariable,
  air_source_heat_pump_airloop_RA_T;      !- Erl Variable Name 1

EnergyManagementSystem:GlobalVariable,
  air_source_heat_pump_airloop_Ra_W;      !- Erl Variable Name 1

EnergyManagementSystem:GlobalVariable,
  infil_program_Qfan;                     !- Erl Variable Name 1

EnergyManagementSystem:GlobalVariable,
  infil_program_Qinf;                     !- Erl Variable Name 1

EnergyManagementSystem:GlobalVariable,
  natural_vent_program_Qnv;               !- Erl Variable Name 1

EnergyManagementSystem:GlobalVariable,
  natural_vent_program_Qwhf;              !- Erl Variable Name 1

EnergyManagementSystem:InternalVariable,
  air_source_heat_pump_airloop_max_sup_fan_mfr, !- Name
  air source heat pump supply fan,        !- Internal Data Index Key Name
  Fan Maximum Mass Flow Rate;             !- Internal Data Type

EnergyManagementSystem:Sensor,
  airflow_gain,                           !- Name
  infil flow,                             !- Output:Variable or Output:Meter Index Key Name
  Infiltration Sensible Heat Gain Energy; !- Output:Variable or Output:Meter Name

EnergyManagementSystem:Sensor,
  airflow_gain_1,                         !- Name
  natural vent flow,                      !- Output:Variable or Output:Meter Index Key Name
  Infiltration Sensible Heat Gain Energy; !- Output:Variable or Output:Meter Name

EnergyManagementSystem:Sensor,
  airflow_gain_2,                         !- Name
  whole house fan flow,                   !- Output:Variable or Output:Meter Index Key Name
  Infiltration Sensible Heat Gain Energy; !- Output:Variable or Output:Meter Name

EnergyManagementSystem:Sensor,
  airflow_loss,                           !- Name
  infil flow,                             !- Output:Variable or Output:Meter Index Key Name
  Infiltration Sensible Heat Loss Energy; !- Output:Variable or Output:Meter Name

EnergyManagementSystem:Sensor,
  airflow_loss_1,                         !- Name
  natural vent flow,                      !- Output:Variable or Output:Meter Index Key Name
  Infiltration Sensible Heat Loss Energy; !- Output:Variable or Output:Meter Name

EnergyManagementSystem:Sensor,
  airflow_loss_2,                         !- Name
  whole house fan flow,                   !- Output:Variable or Output:Meter Index Key Name
  Infiltration Sensible Heat Loss Energy; !- Output:Variable or Output:Meter Name

EnergyManagementSystem:Sensor,
  air_source_heat_pump_airloop_0_DZ_T_s,  !- Name
  crawlspace - vented,                    !- Output:Variable or Output:Meter Index Key Name
  Zone Air Temperature;                   !- Output:Variable or Output:Meter Name

EnergyManagementSystem:Sensor,
  air_source_heat_pump_airloop_0_DZ_W_s,  !- Name
  crawlspace - vented,                    !- Output:Variable or Output:Meter Index Key Name
  Zone Mean Air Humidity Ratio;           !- Output:Variable or Output:Meter Name

EnergyManagementSystem:Sensor,
  air_source_heat_pump_airloop_AH_MFR_s,  !- Name
  Node 6,                                 !- Output:Variable or Output:Meter Index Key Name
  System Node Mass Flow Rate;             !- Output:Variable or Output:Meter Name

EnergyManagementSystem:Sensor,
  air_source_heat_pump_airloop_AH_Tout_s, !- Name
  Node 6,                                 !- Output:Variable or Output:Meter Index Key Name
  System Node Temperature;                !- Output:Variable or Output:Meter Name

EnergyManagementSystem:Sensor,
  air_source_heat_pump_airloop_AH_VFR_s,  !- Name
  Node 6,                                 !- Output:Variable or Output:Meter Index Key Name
  System Node Current Density Volume Flow Rate; !- Output:Variable or Output:Meter Name

EnergyManagementSystem:Sensor,
  air_source_heat_pump_airloop_AH_Wout_s, !- Name
  Node 6,                                 !- Output:Variable or Output:Meter Index Key Name
  System Node Humidity Ratio;             !- Output:Variable or Output:Meter Name

EnergyManagementSystem:Sensor,
  air_source_heat_pump_airloop_Fan_RTF_s, !- Name
  air source heat pump supply fan,        !- Output:Variable or Output:Meter Index Key Name
  Fan Runtime Fraction Speed 1;           !- Output:Variable or Output:Meter Name

EnergyManagementSystem:Sensor,
  air_source_heat_pump_airloop_Fan_RTF_s_1, !- Name
  air source heat pump supply fan,        !- Output:Variable or Output:Meter Index Key Name
  Fan Runtime Fraction Speed 2;           !- Output:Variable or Output:Meter Name

EnergyManagementSystem:Sensor,
  air_source_heat_pump_airloop_RA_T_s,    !- Name
  Node 9,                                 !- Output:Variable or Output:Meter Index Key Name
  System Node Temperature;                !- Output:Variable or Output:Meter Name

EnergyManagementSystem:Sensor,
  air_source_heat_pump_airloop_Ra_W_s,    !- Name
  Node 9,                                 !- Output:Variable or Output:Meter Index Key Name
  System Node Humidity Ratio;             !- Output:Variable or Output:Meter Name

EnergyManagementSystem:Sensor,
  air_source_heat_pump_backup_htg_coil_s, !- Name
  air source heat pump backup htg coil,   !- Output:Variable or Output:Meter Index Key Name
  Heating Coil Heating Energy;            !- Output:Variable or Output:Meter Name

EnergyManagementSystem:Sensor,
  air_source_heat_pump_clg_coil_s,        !- Name
  air source heat pump clg coil,          !- Output:Variable or Output:Meter Index Key Name
  Cooling Coil Total Cooling Energy;      !- Output:Variable or Output:Meter Name

EnergyManagementSystem:Sensor,
  air_source_heat_pump_htg_coil_s,        !- Name
  air source heat pump htg coil,          !- Output:Variable or Output:Meter Index Key Name
  Heating Coil Heating Energy;            !- Output:Variable or Output:Meter Name

EnergyManagementSystem:Sensor,
  air_source_heat_pump_supply_fan_s,      !- Name
  air source heat pump supply fan,        !- Output:Variable or Output:Meter Index Key Name
  Fan Electricity Energy;                 !- Output:Variable or Output:Meter Name

EnergyManagementSystem:Sensor,
  clg_load_cond,                          !- Name
  ,                                       !- Output:Variable or Output:Meter Index Key Name
  Cooling:EnergyTransfer:Zone:CONDITIONED SPACE; !- Output:Variable or Output:Meter Name

EnergyManagementSystem:Sensor,
  clg_load_duct,                          !- Name
  ,                                       !- Output:Variable or Output:Meter Index Key Name
  Cooling:EnergyTransfer:Zone:AIR SOURCE HEAT PUMP AIRLOOP RET AIR ZONE; !- Output:Variable or Output:Meter Name

EnergyManagementSystem:Sensor,
  clg_sp_s,                               !- Name
  cooling setpoint,                       !- Output:Variable or Output:Meter Index Key Name
  Schedule Value;                         !- Output:Variable or Output:Meter Name

EnergyManagementSystem:Sensor,
  clg_sp_s_1,                             !- Name
  cooling setpoint,                       !- Output:Variable or Output:Meter Index Key Name
  Schedule Value;                         !- Output:Variable or Output:Meter Name

EnergyManagementSystem:Sensor,
  conditioned_space_clg_unmet_s,          !- Name
  conditioned space,                      !- Output:Variable or Output:Meter Index Key Name
  Zone Cooling Setpoint Not Met Time;     !- Output:Variable or Output:Meter Name

EnergyManagementSystem:Sensor,
  conditioned_space_htg_unmet_s,          !- Name
  conditioned space,                      !- Output:Variable or Output:Meter Index Key Name
  Zone Heating Setpoint Not Met Time;     !- Output:Variable or Output:Meter Name

EnergyManagementSystem:Sensor,
  cool_season,                            !- Name
  cooling season schedule,                !- Output:Variable or Output:Meter Index Key Name
  Schedule Value;                         !- Output:Variable or Output:Meter Name

EnergyManagementSystem:Sensor,
  ducts_conv,                             !- Name
  air source heat pump airloop_0 RetCondToRP, !- Output:Variable or Output:Meter Index Key Name
  Other Equipment Convective Heating Energy; !- Output:Variable or Output:Meter Name

EnergyManagementSystem:Sensor,
  ducts_conv_1,                           !- Name
  air source heat pump airloop_0 RetLatLkToRP, !- Output:Variable or Output:Meter Index Key Name
  Other Equipment Convective Heating Energy; !- Output:Variable or Output:Meter Name

EnergyManagementSystem:Sensor,
  ducts_conv_2,                           !- Name
  air source heat pump airloop_0 RetSensLkToRP, !- Output:Variable or Output:Meter Index Key Name
  Other Equipment Convective Heating Energy; !- Output:Variable or Output:Meter Name

EnergyManagementSystem:Sensor,
  ducts_conv_3,                           !- Name
  air source heat pump airloop_0 SupCondToLv, !- Output:Variable or Output:Meter Index Key Name
  Other Equipment Convective Heating Energy; !- Output:Variable or Output:Meter Name

EnergyManagementSystem:Sensor,
  ducts_conv_4,                           !- Name
  air source heat pump airloop_0 SupLatLkToCond, !- Output:Variable or Output:Meter Index Key Name
  Other Equipment Convective Heating Energy; !- Output:Variable or Output:Meter Name

EnergyManagementSystem:Sensor,
  ducts_conv_5,                           !- Name
  air source heat pump airloop_0 SupSensLkToCond, !- Output:Variable or Output:Meter Index Key Name
  Other Equipment Convective Heating Energy; !- Output:Variable or Output:Meter Name

EnergyManagementSystem:Sensor,
  ducts_rad,                              !- Name
  air source heat pump airloop_0 RetCondToRP, !- Output:Variable or Output:Meter Index Key Name
  Other Equipment Radiant Heating Energy; !- Output:Variable or Output:Meter Name

EnergyManagementSystem:Sensor,
  ducts_rad_1,                            !- Name
  air source heat pump airloop_0 RetLatLkToRP, !- Output:Variable or Output:Meter Index Key Name
  Other Equipment Radiant Heating Energy; !- Output:Variable or Output:Meter Name

EnergyManagementSystem:Sensor,
  ducts_rad_2,                            !- Name
  air source heat pump airloop_0 RetSensLkToRP, !- Output:Variable or Output:Meter Index Key Name
  Other Equipment Radiant Heating Energy; !- Output:Variable or Output:Meter Name

EnergyManagementSystem:Sensor,
  ducts_rad_3,                            !- Name
  air source heat pump airloop_0 SupCondToLv, !- Output:Variable or Output:Meter Index Key Name
  Other Equipment Radiant Heating Energy; !- Output:Variable or Output:Meter Name

EnergyManagementSystem:Sensor,
  ducts_rad_4,                            !- Name
  air source heat pump airloop_0 SupLatLkToCond, !- Output:Variable or Output:Meter Index Key Name
  Other Equipment Radiant Heating Energy; !- Output:Variable or Output:Meter Name

EnergyManagementSystem:Sensor,
  ducts_rad_5,                            !- Name
  air source heat pump airloop_0 SupSensLkToCond, !- Output:Variable or Output:Meter Index Key Name
  Other Equipment Radiant Heating Energy; !- Output:Variable or Output:Meter Name

EnergyManagementSystem:Sensor,
  duct_mix_gain,                          !- Name
  conditioned space,                      !- Output:Variable or Output:Meter Index Key Name
  Zone Mixing Sensible Heat Gain Energy;  !- Output:Variable or Output:Meter Name

EnergyManagementSystem:Sensor,
  duct_mix_gain_1,                        !- Name
  conditioned space,                      !- Output:Variable or Output:Meter Index Key Name
  Zone Mixing Sensible Heat Gain Energy;  !- Output:Variable or Output:Meter Name

EnergyManagementSystem:Sensor,
  duct_mix_loss,                          !- Name
  conditioned space,                      !- Output:Variable or Output:Meter Index Key Name
  Zone Mixing Sensible Heat Loss Energy;  !- Output:Variable or Output:Meter Name

EnergyManagementSystem:Sensor,
  duct_mix_loss_1,                        !- Name
  conditioned space,                      !- Output:Variable or Output:Meter Index Key Name
  Zone Mixing Sensible Heat Loss Energy;  !- Output:Variable or Output:Meter Name

EnergyManagementSystem:Sensor,
  fridge_tin_s,                           !- Name
  conditioned space,                      !- Output:Variable or Output:Meter Index Key Name
  Zone Mean Air Temperature;              !- Output:Variable or Output:Meter Name

EnergyManagementSystem:Sensor,
  htg_load_cond,                          !- Name
  ,                                       !- Output:Variable or Output:Meter Index Key Name
  Heating:EnergyTransfer:Zone:CONDITIONED SPACE; !- Output:Variable or Output:Meter Name

EnergyManagementSystem:Sensor,
  htg_load_duct,                          !- Name
  ,                                       !- Output:Variable or Output:Meter Index Key Name
  Heating:EnergyTransfer:Zone:AIR SOURCE HEAT PUMP AIRLOOP RET AIR ZONE; !- Output:Variable or Output:Meter Name

EnergyManagementSystem:Sensor,
  htg_sp_s,                               !- Name
  heating setpoint,                       !- Output:Variable or Output:Meter Index Key Name
  Schedule Value;                         !- Output:Variable or Output:Meter Name

EnergyManagementSystem:Sensor,
  htg_sp_s_1,                             !- Name
  heating setpoint,                       !- Output:Variable or Output:Meter Index Key Name
  Schedule Value;                         !- Output:Variable or Output:Meter Name

EnergyManagementSystem:Sensor,
  ig_ee_conv,                             !- Name
  clothes washer,                         !- Output:Variable or Output:Meter Index Key Name
  Electric Equipment Convective Heating Energy; !- Output:Variable or Output:Meter Name

EnergyManagementSystem:Sensor,
  ig_ee_conv_1,                           !- Name
  cooking range,                          !- Output:Variable or Output:Meter Index Key Name
  Electric Equipment Convective Heating Energy; !- Output:Variable or Output:Meter Name

EnergyManagementSystem:Sensor,
  ig_ee_conv_2,                           !- Name
  fridge,                                 !- Output:Variable or Output:Meter Index Key Name
  Electric Equipment Convective Heating Energy; !- Output:Variable or Output:Meter Name

EnergyManagementSystem:Sensor,
  ig_ee_conv_3,                           !- Name
  misc plug loads,                        !- Output:Variable or Output:Meter Index Key Name
  Electric Equipment Convective Heating Energy; !- Output:Variable or Output:Meter Name

EnergyManagementSystem:Sensor,
  ig_ee_conv_4,                           !- Name
  misc tv,                                !- Output:Variable or Output:Meter Index Key Name
  Electric Equipment Convective Heating Energy; !- Output:Variable or Output:Meter Name

EnergyManagementSystem:Sensor,
  ig_ee_conv_5,                           !- Name
  whole house fan,                        !- Output:Variable or Output:Meter Index Key Name
  Electric Equipment Convective Heating Energy; !- Output:Variable or Output:Meter Name

EnergyManagementSystem:Sensor,
  ig_ee_rad,                              !- Name
  clothes washer,                         !- Output:Variable or Output:Meter Index Key Name
  Electric Equipment Radiant Heating Energy; !- Output:Variable or Output:Meter Name

EnergyManagementSystem:Sensor,
  ig_ee_rad_1,                            !- Name
  cooking range,                          !- Output:Variable or Output:Meter Index Key Name
  Electric Equipment Radiant Heating Energy; !- Output:Variable or Output:Meter Name

EnergyManagementSystem:Sensor,
  ig_ee_rad_2,                            !- Name
  fridge,                                 !- Output:Variable or Output:Meter Index Key Name
  Electric Equipment Radiant Heating Energy; !- Output:Variable or Output:Meter Name

EnergyManagementSystem:Sensor,
  ig_ee_rad_3,                            !- Name
  misc plug loads,                        !- Output:Variable or Output:Meter Index Key Name
  Electric Equipment Radiant Heating Energy; !- Output:Variable or Output:Meter Name

EnergyManagementSystem:Sensor,
  ig_ee_rad_4,                            !- Name
  misc tv,                                !- Output:Variable or Output:Meter Index Key Name
  Electric Equipment Radiant Heating Energy; !- Output:Variable or Output:Meter Name

EnergyManagementSystem:Sensor,
  ig_ee_rad_5,                            !- Name
  whole house fan,                        !- Output:Variable or Output:Meter Index Key Name
  Electric Equipment Radiant Heating Energy; !- Output:Variable or Output:Meter Name

EnergyManagementSystem:Sensor,
  ig_lgt_conv,                            !- Name
  interior lighting,                      !- Output:Variable or Output:Meter Index Key Name
  Lights Convective Heating Energy;       !- Output:Variable or Output:Meter Name

EnergyManagementSystem:Sensor,
  ig_lgt_rad,                             !- Name
  interior lighting,                      !- Output:Variable or Output:Meter Index Key Name
  Lights Radiant Heating Energy;          !- Output:Variable or Output:Meter Name

EnergyManagementSystem:Sensor,
  ig_lgt_vis,                             !- Name
  interior lighting,                      !- Output:Variable or Output:Meter Index Key Name
  Lights Visible Radiation Heating Energy; !- Output:Variable or Output:Meter Name

EnergyManagementSystem:Sensor,
  ig_oe_conv,                             !- Name
  cooking range 1,                        !- Output:Variable or Output:Meter Index Key Name
  Other Equipment Convective Heating Energy; !- Output:Variable or Output:Meter Name

EnergyManagementSystem:Sensor,
  ig_oe_conv_1,                           !- Name
  general water use latent,               !- Output:Variable or Output:Meter Index Key Name
  Other Equipment Convective Heating Energy; !- Output:Variable or Output:Meter Name

EnergyManagementSystem:Sensor,
  ig_oe_conv_2,                           !- Name
  general water use sensible,             !- Output:Variable or Output:Meter Index Key Name
  Other Equipment Convective Heating Energy; !- Output:Variable or Output:Meter Name

EnergyManagementSystem:Sensor,
  ig_oe_rad,                              !- Name
  cooking range 1,                        !- Output:Variable or Output:Meter Index Key Name
  Other Equipment Radiant Heating Energy; !- Output:Variable or Output:Meter Name

EnergyManagementSystem:Sensor,
  ig_oe_rad_1,                            !- Name
  general water use latent,               !- Output:Variable or Output:Meter Index Key Name
  Other Equipment Radiant Heating Energy; !- Output:Variable or Output:Meter Name

EnergyManagementSystem:Sensor,
  ig_oe_rad_2,                            !- Name
  general water use sensible,             !- Output:Variable or Output:Meter Index Key Name
  Other Equipment Radiant Heating Energy; !- Output:Variable or Output:Meter Name

EnergyManagementSystem:Sensor,
  ig_ppl_conv,                            !- Name
  occupants,                              !- Output:Variable or Output:Meter Index Key Name
  People Convective Heating Energy;       !- Output:Variable or Output:Meter Name

EnergyManagementSystem:Sensor,
  ig_ppl_rad,                             !- Name
  occupants,                              !- Output:Variable or Output:Meter Index Key Name
  People Radiant Heating Energy;          !- Output:Variable or Output:Meter Name

EnergyManagementSystem:Sensor,
  im_conv,                                !- Name
  furniture mass conditioned space 1,     !- Output:Variable or Output:Meter Index Key Name
  Surface Inside Face Convection Heat Gain Energy; !- Output:Variable or Output:Meter Name

EnergyManagementSystem:Sensor,
  im_conv_1,                              !- Name
  partition wall mass,                    !- Output:Variable or Output:Meter Index Key Name
  Surface Inside Face Convection Heat Gain Energy; !- Output:Variable or Output:Meter Name

EnergyManagementSystem:Sensor,
  im_ig,                                  !- Name
  furniture mass conditioned space 1,     !- Output:Variable or Output:Meter Index Key Name
  Surface Inside Face Internal Gains Radiation Heat Gain Energy; !- Output:Variable or Output:Meter Name

EnergyManagementSystem:Sensor,
  im_ig_1,                                !- Name
  partition wall mass,                    !- Output:Variable or Output:Meter Index Key Name
  Surface Inside Face Internal Gains Radiation Heat Gain Energy; !- Output:Variable or Output:Meter Name

EnergyManagementSystem:Sensor,
  im_lgt,                                 !- Name
  furniture mass conditioned space 1,     !- Output:Variable or Output:Meter Index Key Name
  Surface Inside Face Lights Radiation Heat Gain Energy; !- Output:Variable or Output:Meter Name

EnergyManagementSystem:Sensor,
  im_lgt_1,                               !- Name
  partition wall mass,                    !- Output:Variable or Output:Meter Index Key Name
  Surface Inside Face Lights Radiation Heat Gain Energy; !- Output:Variable or Output:Meter Name

EnergyManagementSystem:Sensor,
  im_sol,                                 !- Name
  furniture mass conditioned space 1,     !- Output:Variable or Output:Meter Index Key Name
  Surface Inside Face Solar Radiation Heat Gain Energy; !- Output:Variable or Output:Meter Name

EnergyManagementSystem:Sensor,
  im_sol_1,                               !- Name
  partition wall mass,                    !- Output:Variable or Output:Meter Index Key Name
  Surface Inside Face Solar Radiation Heat Gain Energy; !- Output:Variable or Output:Meter Name

EnergyManagementSystem:Sensor,
  im_surf,                                !- Name
  furniture mass conditioned space 1,     !- Output:Variable or Output:Meter Index Key Name
  Surface Inside Face Net Surface Thermal Radiation Heat Gain Energy; !- Output:Variable or Output:Meter Name

EnergyManagementSystem:Sensor,
  im_surf_1,                              !- Name
  partition wall mass,                    !- Output:Variable or Output:Meter Index Key Name
  Surface Inside Face Net Surface Thermal Radiation Heat Gain Energy; !- Output:Variable or Output:Meter Name

EnergyManagementSystem:Sensor,
  mech_vent_bath_fan_0_sch_s,             !- Name
  mech vent bath fan 0 schedule,          !- Output:Variable or Output:Meter Index Key Name
  Schedule Value;                         !- Output:Variable or Output:Meter Name

EnergyManagementSystem:Sensor,
  mech_vent_range_fan_0_sch_s,            !- Name
  mech vent range fan 0 schedule,         !- Output:Variable or Output:Meter Index Key Name
  Schedule Value;                         !- Output:Variable or Output:Meter Name

EnergyManagementSystem:Sensor,
  mv_conv,                                !- Name
  mech vent bath fan 0,                   !- Output:Variable or Output:Meter Index Key Name
  Electric Equipment Convective Heating Energy; !- Output:Variable or Output:Meter Name

EnergyManagementSystem:Sensor,
  mv_conv_1,                              !- Name
  mech vent house fan,                    !- Output:Variable or Output:Meter Index Key Name
  Electric Equipment Convective Heating Energy; !- Output:Variable or Output:Meter Name

EnergyManagementSystem:Sensor,
  mv_conv_2,                              !- Name
  mech vent house fan cfis,               !- Output:Variable or Output:Meter Index Key Name
  Electric Equipment Convective Heating Energy; !- Output:Variable or Output:Meter Name

EnergyManagementSystem:Sensor,
  mv_conv_3,                              !- Name
  mech vent range fan 0,                  !- Output:Variable or Output:Meter Index Key Name
  Electric Equipment Convective Heating Energy; !- Output:Variable or Output:Meter Name

EnergyManagementSystem:Sensor,
  mv_conv_4,                              !- Name
  mech vent house fan latent load,        !- Output:Variable or Output:Meter Index Key Name
  Other Equipment Convective Heating Energy; !- Output:Variable or Output:Meter Name

EnergyManagementSystem:Sensor,
  mv_conv_5,                              !- Name
  mech vent house fan sensible load,      !- Output:Variable or Output:Meter Index Key Name
  Other Equipment Convective Heating Energy; !- Output:Variable or Output:Meter Name

EnergyManagementSystem:Sensor,
  mv_rad,                                 !- Name
  mech vent bath fan 0,                   !- Output:Variable or Output:Meter Index Key Name
  Electric Equipment Radiant Heating Energy; !- Output:Variable or Output:Meter Name

EnergyManagementSystem:Sensor,
  mv_rad_1,                               !- Name
  mech vent house fan,                    !- Output:Variable or Output:Meter Index Key Name
  Electric Equipment Radiant Heating Energy; !- Output:Variable or Output:Meter Name

EnergyManagementSystem:Sensor,
  mv_rad_2,                               !- Name
  mech vent house fan cfis,               !- Output:Variable or Output:Meter Index Key Name
  Electric Equipment Radiant Heating Energy; !- Output:Variable or Output:Meter Name

EnergyManagementSystem:Sensor,
  mv_rad_3,                               !- Name
  mech vent range fan 0,                  !- Output:Variable or Output:Meter Index Key Name
  Electric Equipment Radiant Heating Energy; !- Output:Variable or Output:Meter Name

EnergyManagementSystem:Sensor,
  mv_rad_4,                               !- Name
  mech vent house fan latent load,        !- Output:Variable or Output:Meter Index Key Name
  Other Equipment Radiant Heating Energy; !- Output:Variable or Output:Meter Name

EnergyManagementSystem:Sensor,
  mv_rad_5,                               !- Name
  mech vent house fan sensible load,      !- Output:Variable or Output:Meter Index Key Name
  Other Equipment Radiant Heating Energy; !- Output:Variable or Output:Meter Name

EnergyManagementSystem:Sensor,
  natural_vent_s,                         !- Name
  natural vent schedule,                  !- Output:Variable or Output:Meter Index Key Name
  Schedule Value;                         !- Output:Variable or Output:Meter Name

EnergyManagementSystem:Sensor,
  out_pb_s,                               !- Name
  ,                                       !- Output:Variable or Output:Meter Index Key Name
  Site Outdoor Air Barometric Pressure;   !- Output:Variable or Output:Meter Name

EnergyManagementSystem:Sensor,
  out_wt_s,                               !- Name
  ,                                       !- Output:Variable or Output:Meter Index Key Name
  Site Outdoor Air Humidity Ratio;        !- Output:Variable or Output:Meter Name

EnergyManagementSystem:Sensor,
  site_vw_s,                              !- Name
  ,                                       !- Output:Variable or Output:Meter Index Key Name
  Site Wind Speed;                        !- Output:Variable or Output:Meter Name

EnergyManagementSystem:Sensor,
  ss_back_out,                            !- Name
  Window1,                                !- Output:Variable or Output:Meter Index Key Name
  Surface Window Shortwave from Zone Back Out Window Heat Transfer Rate; !- Output:Variable or Output:Meter Name

EnergyManagementSystem:Sensor,
  ss_back_out_1,                          !- Name
  Window2,                                !- Output:Variable or Output:Meter Index Key Name
  Surface Window Shortwave from Zone Back Out Window Heat Transfer Rate; !- Output:Variable or Output:Meter Name

EnergyManagementSystem:Sensor,
  ss_back_out_2,                          !- Name
  Window3,                                !- Output:Variable or Output:Meter Index Key Name
  Surface Window Shortwave from Zone Back Out Window Heat Transfer Rate; !- Output:Variable or Output:Meter Name

EnergyManagementSystem:Sensor,
  ss_back_out_3,                          !- Name
  Window4,                                !- Output:Variable or Output:Meter Index Key Name
  Surface Window Shortwave from Zone Back Out Window Heat Transfer Rate; !- Output:Variable or Output:Meter Name

EnergyManagementSystem:Sensor,
  ss_conv,                                !- Name
  Door1,                                  !- Output:Variable or Output:Meter Index Key Name
  Surface Inside Face Convection Heat Gain Energy; !- Output:Variable or Output:Meter Name

EnergyManagementSystem:Sensor,
  ss_conv_1,                              !- Name
  Window1,                                !- Output:Variable or Output:Meter Index Key Name
  Surface Inside Face Convection Heat Gain Energy; !- Output:Variable or Output:Meter Name

EnergyManagementSystem:Sensor,
  ss_conv_2,                              !- Name
  Window2,                                !- Output:Variable or Output:Meter Index Key Name
  Surface Inside Face Convection Heat Gain Energy; !- Output:Variable or Output:Meter Name

EnergyManagementSystem:Sensor,
  ss_conv_3,                              !- Name
  Window3,                                !- Output:Variable or Output:Meter Index Key Name
  Surface Inside Face Convection Heat Gain Energy; !- Output:Variable or Output:Meter Name

EnergyManagementSystem:Sensor,
  ss_conv_4,                              !- Name
  Window4,                                !- Output:Variable or Output:Meter Index Key Name
  Surface Inside Face Convection Heat Gain Energy; !- Output:Variable or Output:Meter Name

EnergyManagementSystem:Sensor,
  ss_ig,                                  !- Name
  Door1,                                  !- Output:Variable or Output:Meter Index Key Name
  Surface Inside Face Internal Gains Radiation Heat Gain Energy; !- Output:Variable or Output:Meter Name

EnergyManagementSystem:Sensor,
  ss_ig_1,                                !- Name
  Window1,                                !- Output:Variable or Output:Meter Index Key Name
  Surface Inside Face Internal Gains Radiation Heat Gain Energy; !- Output:Variable or Output:Meter Name

EnergyManagementSystem:Sensor,
  ss_ig_2,                                !- Name
  Window2,                                !- Output:Variable or Output:Meter Index Key Name
  Surface Inside Face Internal Gains Radiation Heat Gain Energy; !- Output:Variable or Output:Meter Name

EnergyManagementSystem:Sensor,
  ss_ig_3,                                !- Name
  Window3,                                !- Output:Variable or Output:Meter Index Key Name
  Surface Inside Face Internal Gains Radiation Heat Gain Energy; !- Output:Variable or Output:Meter Name

EnergyManagementSystem:Sensor,
  ss_ig_4,                                !- Name
  Window4,                                !- Output:Variable or Output:Meter Index Key Name
  Surface Inside Face Internal Gains Radiation Heat Gain Energy; !- Output:Variable or Output:Meter Name

EnergyManagementSystem:Sensor,
  ss_lgt,                                 !- Name
  Door1,                                  !- Output:Variable or Output:Meter Index Key Name
  Surface Inside Face Lights Radiation Heat Gain Energy; !- Output:Variable or Output:Meter Name

EnergyManagementSystem:Sensor,
  ss_sol,                                 !- Name
  Door1,                                  !- Output:Variable or Output:Meter Index Key Name
  Surface Inside Face Solar Radiation Heat Gain Energy; !- Output:Variable or Output:Meter Name

EnergyManagementSystem:Sensor,
  ss_surf,                                !- Name
  Door1,                                  !- Output:Variable or Output:Meter Index Key Name
  Surface Inside Face Net Surface Thermal Radiation Heat Gain Energy; !- Output:Variable or Output:Meter Name

EnergyManagementSystem:Sensor,
  ss_surf_1,                              !- Name
  Window1,                                !- Output:Variable or Output:Meter Index Key Name
  Surface Inside Face Net Surface Thermal Radiation Heat Gain Energy; !- Output:Variable or Output:Meter Name

EnergyManagementSystem:Sensor,
  ss_surf_2,                              !- Name
  Window2,                                !- Output:Variable or Output:Meter Index Key Name
  Surface Inside Face Net Surface Thermal Radiation Heat Gain Energy; !- Output:Variable or Output:Meter Name

EnergyManagementSystem:Sensor,
  ss_surf_3,                              !- Name
  Window3,                                !- Output:Variable or Output:Meter Index Key Name
  Surface Inside Face Net Surface Thermal Radiation Heat Gain Energy; !- Output:Variable or Output:Meter Name

EnergyManagementSystem:Sensor,
  ss_surf_4,                              !- Name
  Window4,                                !- Output:Variable or Output:Meter Index Key Name
  Surface Inside Face Net Surface Thermal Radiation Heat Gain Energy; !- Output:Variable or Output:Meter Name

EnergyManagementSystem:Sensor,
  ss_trans_in,                            !- Name
  Window1,                                !- Output:Variable or Output:Meter Index Key Name
  Surface Window Transmitted Solar Radiation Rate; !- Output:Variable or Output:Meter Name

EnergyManagementSystem:Sensor,
  ss_trans_in_1,                          !- Name
  Window2,                                !- Output:Variable or Output:Meter Index Key Name
  Surface Window Transmitted Solar Radiation Rate; !- Output:Variable or Output:Meter Name

EnergyManagementSystem:Sensor,
  ss_trans_in_2,                          !- Name
  Window3,                                !- Output:Variable or Output:Meter Index Key Name
  Surface Window Transmitted Solar Radiation Rate; !- Output:Variable or Output:Meter Name

EnergyManagementSystem:Sensor,
  ss_trans_in_3,                          !- Name
  Window4,                                !- Output:Variable or Output:Meter Index Key Name
  Surface Window Transmitted Solar Radiation Rate; !- Output:Variable or Output:Meter Name

EnergyManagementSystem:Sensor,
  ss_trans_out,                           !- Name
  Window1,                                !- Output:Variable or Output:Meter Index Key Name
  Surface Inside Face Initial Transmitted Diffuse Transmitted Out Window Solar Radiation Rate; !- Output:Variable or Output:Meter Name

EnergyManagementSystem:Sensor,
  ss_trans_out_1,                         !- Name
  Window2,                                !- Output:Variable or Output:Meter Index Key Name
  Surface Inside Face Initial Transmitted Diffuse Transmitted Out Window Solar Radiation Rate; !- Output:Variable or Output:Meter Name

EnergyManagementSystem:Sensor,
  ss_trans_out_2,                         !- Name
  Window3,                                !- Output:Variable or Output:Meter Index Key Name
  Surface Inside Face Initial Transmitted Diffuse Transmitted Out Window Solar Radiation Rate; !- Output:Variable or Output:Meter Name

EnergyManagementSystem:Sensor,
  ss_trans_out_3,                         !- Name
  Window4,                                !- Output:Variable or Output:Meter Index Key Name
  Surface Inside Face Initial Transmitted Diffuse Transmitted Out Window Solar Radiation Rate; !- Output:Variable or Output:Meter Name

EnergyManagementSystem:Sensor,
  s_conv,                                 !- Name
  Floor1,                                 !- Output:Variable or Output:Meter Index Key Name
  Surface Inside Face Convection Heat Gain Energy; !- Output:Variable or Output:Meter Name

EnergyManagementSystem:Sensor,
  s_conv_1,                               !- Name
  Roof2,                                  !- Output:Variable or Output:Meter Index Key Name
  Surface Inside Face Convection Heat Gain Energy; !- Output:Variable or Output:Meter Name

EnergyManagementSystem:Sensor,
  s_conv_2,                               !- Name
  Wall3,                                  !- Output:Variable or Output:Meter Index Key Name
  Surface Inside Face Convection Heat Gain Energy; !- Output:Variable or Output:Meter Name

EnergyManagementSystem:Sensor,
  s_conv_3,                               !- Name
  Wall4,                                  !- Output:Variable or Output:Meter Index Key Name
  Surface Inside Face Convection Heat Gain Energy; !- Output:Variable or Output:Meter Name

EnergyManagementSystem:Sensor,
  s_conv_4,                               !- Name
  Wall5,                                  !- Output:Variable or Output:Meter Index Key Name
  Surface Inside Face Convection Heat Gain Energy; !- Output:Variable or Output:Meter Name

EnergyManagementSystem:Sensor,
  s_conv_5,                               !- Name
  Wall6,                                  !- Output:Variable or Output:Meter Index Key Name
  Surface Inside Face Convection Heat Gain Energy; !- Output:Variable or Output:Meter Name

EnergyManagementSystem:Sensor,
  s_conv_6,                               !- Name
  Wall7,                                  !- Output:Variable or Output:Meter Index Key Name
  Surface Inside Face Convection Heat Gain Energy; !- Output:Variable or Output:Meter Name

EnergyManagementSystem:Sensor,
  s_conv_7,                               !- Name
  Wall8,                                  !- Output:Variable or Output:Meter Index Key Name
  Surface Inside Face Convection Heat Gain Energy; !- Output:Variable or Output:Meter Name

EnergyManagementSystem:Sensor,
  s_ig,                                   !- Name
  Floor1,                                 !- Output:Variable or Output:Meter Index Key Name
  Surface Inside Face Internal Gains Radiation Heat Gain Energy; !- Output:Variable or Output:Meter Name

EnergyManagementSystem:Sensor,
  s_ig_1,                                 !- Name
  Roof2,                                  !- Output:Variable or Output:Meter Index Key Name
  Surface Inside Face Internal Gains Radiation Heat Gain Energy; !- Output:Variable or Output:Meter Name

EnergyManagementSystem:Sensor,
  s_ig_2,                                 !- Name
  Wall3,                                  !- Output:Variable or Output:Meter Index Key Name
  Surface Inside Face Internal Gains Radiation Heat Gain Energy; !- Output:Variable or Output:Meter Name

EnergyManagementSystem:Sensor,
  s_ig_3,                                 !- Name
  Wall4,                                  !- Output:Variable or Output:Meter Index Key Name
  Surface Inside Face Internal Gains Radiation Heat Gain Energy; !- Output:Variable or Output:Meter Name

EnergyManagementSystem:Sensor,
  s_ig_4,                                 !- Name
  Wall5,                                  !- Output:Variable or Output:Meter Index Key Name
  Surface Inside Face Internal Gains Radiation Heat Gain Energy; !- Output:Variable or Output:Meter Name

EnergyManagementSystem:Sensor,
  s_ig_5,                                 !- Name
  Wall6,                                  !- Output:Variable or Output:Meter Index Key Name
  Surface Inside Face Internal Gains Radiation Heat Gain Energy; !- Output:Variable or Output:Meter Name

EnergyManagementSystem:Sensor,
  s_ig_6,                                 !- Name
  Wall7,                                  !- Output:Variable or Output:Meter Index Key Name
  Surface Inside Face Internal Gains Radiation Heat Gain Energy; !- Output:Variable or Output:Meter Name

EnergyManagementSystem:Sensor,
  s_ig_7,                                 !- Name
  Wall8,                                  !- Output:Variable or Output:Meter Index Key Name
  Surface Inside Face Internal Gains Radiation Heat Gain Energy; !- Output:Variable or Output:Meter Name

EnergyManagementSystem:Sensor,
  s_lgt,                                  !- Name
  Floor1,                                 !- Output:Variable or Output:Meter Index Key Name
  Surface Inside Face Lights Radiation Heat Gain Energy; !- Output:Variable or Output:Meter Name

EnergyManagementSystem:Sensor,
  s_lgt_1,                                !- Name
  Roof2,                                  !- Output:Variable or Output:Meter Index Key Name
  Surface Inside Face Lights Radiation Heat Gain Energy; !- Output:Variable or Output:Meter Name

EnergyManagementSystem:Sensor,
  s_lgt_2,                                !- Name
  Wall3,                                  !- Output:Variable or Output:Meter Index Key Name
  Surface Inside Face Lights Radiation Heat Gain Energy; !- Output:Variable or Output:Meter Name

EnergyManagementSystem:Sensor,
  s_lgt_3,                                !- Name
  Wall4,                                  !- Output:Variable or Output:Meter Index Key Name
  Surface Inside Face Lights Radiation Heat Gain Energy; !- Output:Variable or Output:Meter Name

EnergyManagementSystem:Sensor,
  s_lgt_4,                                !- Name
  Wall5,                                  !- Output:Variable or Output:Meter Index Key Name
  Surface Inside Face Lights Radiation Heat Gain Energy; !- Output:Variable or Output:Meter Name

EnergyManagementSystem:Sensor,
  s_lgt_5,                                !- Name
  Wall6,                                  !- Output:Variable or Output:Meter Index Key Name
  Surface Inside Face Lights Radiation Heat Gain Energy; !- Output:Variable or Output:Meter Name

EnergyManagementSystem:Sensor,
  s_lgt_6,                                !- Name
  Wall7,                                  !- Output:Variable or Output:Meter Index Key Name
  Surface Inside Face Lights Radiation Heat Gain Energy; !- Output:Variable or Output:Meter Name

EnergyManagementSystem:Sensor,
  s_lgt_7,                                !- Name
  Wall8,                                  !- Output:Variable or Output:Meter Index Key Name
  Surface Inside Face Lights Radiation Heat Gain Energy; !- Output:Variable or Output:Meter Name

EnergyManagementSystem:Sensor,
  s_sol,                                  !- Name
  Floor1,                                 !- Output:Variable or Output:Meter Index Key Name
  Surface Inside Face Solar Radiation Heat Gain Energy; !- Output:Variable or Output:Meter Name

EnergyManagementSystem:Sensor,
  s_sol_1,                                !- Name
  Roof2,                                  !- Output:Variable or Output:Meter Index Key Name
  Surface Inside Face Solar Radiation Heat Gain Energy; !- Output:Variable or Output:Meter Name

EnergyManagementSystem:Sensor,
  s_sol_2,                                !- Name
  Wall3,                                  !- Output:Variable or Output:Meter Index Key Name
  Surface Inside Face Solar Radiation Heat Gain Energy; !- Output:Variable or Output:Meter Name

EnergyManagementSystem:Sensor,
  s_sol_3,                                !- Name
  Wall4,                                  !- Output:Variable or Output:Meter Index Key Name
  Surface Inside Face Solar Radiation Heat Gain Energy; !- Output:Variable or Output:Meter Name

EnergyManagementSystem:Sensor,
  s_sol_4,                                !- Name
  Wall5,                                  !- Output:Variable or Output:Meter Index Key Name
  Surface Inside Face Solar Radiation Heat Gain Energy; !- Output:Variable or Output:Meter Name

EnergyManagementSystem:Sensor,
  s_sol_5,                                !- Name
  Wall6,                                  !- Output:Variable or Output:Meter Index Key Name
  Surface Inside Face Solar Radiation Heat Gain Energy; !- Output:Variable or Output:Meter Name

EnergyManagementSystem:Sensor,
  s_sol_6,                                !- Name
  Wall7,                                  !- Output:Variable or Output:Meter Index Key Name
  Surface Inside Face Solar Radiation Heat Gain Energy; !- Output:Variable or Output:Meter Name

EnergyManagementSystem:Sensor,
  s_sol_7,                                !- Name
  Wall8,                                  !- Output:Variable or Output:Meter Index Key Name
  Surface Inside Face Solar Radiation Heat Gain Energy; !- Output:Variable or Output:Meter Name

EnergyManagementSystem:Sensor,
  s_surf,                                 !- Name
  Floor1,                                 !- Output:Variable or Output:Meter Index Key Name
  Surface Inside Face Net Surface Thermal Radiation Heat Gain Energy; !- Output:Variable or Output:Meter Name

EnergyManagementSystem:Sensor,
  s_surf_1,                               !- Name
  Roof2,                                  !- Output:Variable or Output:Meter Index Key Name
  Surface Inside Face Net Surface Thermal Radiation Heat Gain Energy; !- Output:Variable or Output:Meter Name

EnergyManagementSystem:Sensor,
  s_surf_2,                               !- Name
  Wall3,                                  !- Output:Variable or Output:Meter Index Key Name
  Surface Inside Face Net Surface Thermal Radiation Heat Gain Energy; !- Output:Variable or Output:Meter Name

EnergyManagementSystem:Sensor,
  s_surf_3,                               !- Name
  Wall4,                                  !- Output:Variable or Output:Meter Index Key Name
  Surface Inside Face Net Surface Thermal Radiation Heat Gain Energy; !- Output:Variable or Output:Meter Name

EnergyManagementSystem:Sensor,
  s_surf_4,                               !- Name
  Wall5,                                  !- Output:Variable or Output:Meter Index Key Name
  Surface Inside Face Net Surface Thermal Radiation Heat Gain Energy; !- Output:Variable or Output:Meter Name

EnergyManagementSystem:Sensor,
  s_surf_5,                               !- Name
  Wall6,                                  !- Output:Variable or Output:Meter Index Key Name
  Surface Inside Face Net Surface Thermal Radiation Heat Gain Energy; !- Output:Variable or Output:Meter Name

EnergyManagementSystem:Sensor,
  s_surf_6,                               !- Name
  Wall7,                                  !- Output:Variable or Output:Meter Index Key Name
  Surface Inside Face Net Surface Thermal Radiation Heat Gain Energy; !- Output:Variable or Output:Meter Name

EnergyManagementSystem:Sensor,
  s_surf_7,                               !- Name
  Wall8,                                  !- Output:Variable or Output:Meter Index Key Name
  Surface Inside Face Net Surface Thermal Radiation Heat Gain Energy; !- Output:Variable or Output:Meter Name

EnergyManagementSystem:Sensor,
  tin_s,                                  !- Name
  conditioned space,                      !- Output:Variable or Output:Meter Index Key Name
  Zone Mean Air Temperature;              !- Output:Variable or Output:Meter Name

EnergyManagementSystem:Sensor,
  tin_s_1,                                !- Name
  conditioned space,                      !- Output:Variable or Output:Meter Index Key Name
  Zone Mean Air Temperature;              !- Output:Variable or Output:Meter Name

EnergyManagementSystem:Sensor,
  tout_s,                                 !- Name
  conditioned space,                      !- Output:Variable or Output:Meter Index Key Name
  Zone Outdoor Air Drybulb Temperature;   !- Output:Variable or Output:Meter Name

EnergyManagementSystem:Sensor,
  water_heater_amb_rh,                    !- Name
  garage,                                 !- Output:Variable or Output:Meter Index Key Name
  Zone Air Relative Humidity;             !- Output:Variable or Output:Meter Name

EnergyManagementSystem:Sensor,
  water_heater_amb_temp,                  !- Name
  garage,                                 !- Output:Variable or Output:Meter Index Key Name
  Zone Mean Air Temperature;              !- Output:Variable or Output:Meter Name

EnergyManagementSystem:Sensor,
  water_heater_coil_energy,               !- Name
  water heater coil,                      !- Output:Variable or Output:Meter Index Key Name
  Cooling Coil Water Heating Electricity Rate; !- Output:Variable or Output:Meter Name

EnergyManagementSystem:Sensor,
  water_heater_fan_energy,                !- Name
  water heater fan,                       !- Output:Variable or Output:Meter Index Key Name
  Fan Electricity Rate;                   !- Output:Variable or Output:Meter Name

EnergyManagementSystem:Sensor,
  water_heater_fan_pwr,                   !- Name
  water heater fan,                       !- Output:Variable or Output:Meter Index Key Name
  Fan Electricity Rate;                   !- Output:Variable or Output:Meter Name

EnergyManagementSystem:Sensor,
  water_heater_lat_cool,                  !- Name
  water heater coil,                      !- Output:Variable or Output:Meter Index Key Name
  Cooling Coil Latent Cooling Rate;       !- Output:Variable or Output:Meter Name

EnergyManagementSystem:Sensor,
  water_heater_sens_cool,                 !- Name
  water heater coil,                      !- Output:Variable or Output:Meter Index Key Name
  Cooling Coil Sensible Cooling Rate;     !- Output:Variable or Output:Meter Name

EnergyManagementSystem:Sensor,
  water_heater_tank_energy,               !- Name
  water heater tank,                      !- Output:Variable or Output:Meter Index Key Name
  Water Heater Electricity Rate;          !- Output:Variable or Output:Meter Name

EnergyManagementSystem:Sensor,
  water_heater_tank_off_cycle_parasitic,  !- Name
  water heater tank,                      !- Output:Variable or Output:Meter Index Key Name
  Water Heater Off Cycle Parasitic Electricity Rate; !- Output:Variable or Output:Meter Name

EnergyManagementSystem:Sensor,
  water_heater_tank_on_cycle_parasitic,   !- Name
  water heater tank,                      !- Output:Variable or Output:Meter Index Key Name
  Water Heater On Cycle Parasitic Electricity Rate; !- Output:Variable or Output:Meter Name

EnergyManagementSystem:Sensor,
  water_heater_tl,                        !- Name
  water heater tank,                      !- Output:Variable or Output:Meter Index Key Name
  Water Heater Heat Loss Rate;            !- Output:Variable or Output:Meter Name

EnergyManagementSystem:Sensor,
  water_heater_T_set,                     !- Name
  water heater setpoint,                  !- Output:Variable or Output:Meter Index Key Name
  Schedule Value;                         !- Output:Variable or Output:Meter Name

EnergyManagementSystem:Sensor,
  win_s,                                  !- Name
  conditioned space,                      !- Output:Variable or Output:Meter Index Key Name
  Zone Air Humidity Ratio;                !- Output:Variable or Output:Meter Name

EnergyManagementSystem:Actuator,
  air_source_heat_pump_airloop_0_RetCondToDZ_act, !- Name
  air source heat pump airloop_0 RetCondToDZ, !- Actuated Component Unique Name
  OtherEquipment,                         !- Actuated Component Type
  Power Level;                            !- Actuated Component Control Type

EnergyManagementSystem:Actuator,
  air_source_heat_pump_airloop_0_RetCondToRP_act, !- Name
  air source heat pump airloop_0 RetCondToRP, !- Actuated Component Unique Name
  OtherEquipment,                         !- Actuated Component Type
  Power Level;                            !- Actuated Component Control Type

EnergyManagementSystem:Actuator,
  air_source_heat_pump_airloop_0_RetLatLkToRP_act, !- Name
  air source heat pump airloop_0 RetLatLkToRP, !- Actuated Component Unique Name
  OtherEquipment,                         !- Actuated Component Type
  Power Level;                            !- Actuated Component Control Type

EnergyManagementSystem:Actuator,
  air_source_heat_pump_airloop_0_RetSensLkToRP_act, !- Name
  air source heat pump airloop_0 RetSensLkToRP, !- Actuated Component Unique Name
  OtherEquipment,                         !- Actuated Component Type
  Power Level;                            !- Actuated Component Control Type

EnergyManagementSystem:Actuator,
  air_source_heat_pump_airloop_0_SupCondToDZ_act, !- Name
  air source heat pump airloop_0 SupCondToDZ, !- Actuated Component Unique Name
  OtherEquipment,                         !- Actuated Component Type
  Power Level;                            !- Actuated Component Control Type

EnergyManagementSystem:Actuator,
  air_source_heat_pump_airloop_0_SupCondToLv_act, !- Name
  air source heat pump airloop_0 SupCondToLv, !- Actuated Component Unique Name
  OtherEquipment,                         !- Actuated Component Type
  Power Level;                            !- Actuated Component Control Type

EnergyManagementSystem:Actuator,
  air_source_heat_pump_airloop_0_SupLatLkToCond_act, !- Name
  air source heat pump airloop_0 SupLatLkToCond, !- Actuated Component Unique Name
  OtherEquipment,                         !- Actuated Component Type
  Power Level;                            !- Actuated Component Control Type

EnergyManagementSystem:Actuator,
  air_source_heat_pump_airloop_0_SupLatLkToDZ_act, !- Name
  air source heat pump airloop_0 SupLatLkToDZ, !- Actuated Component Unique Name
  OtherEquipment,                         !- Actuated Component Type
  Power Level;                            !- Actuated Component Control Type

EnergyManagementSystem:Actuator,
  air_source_heat_pump_airloop_0_SupSensLkToCond_act, !- Name
  air source heat pump airloop_0 SupSensLkToCond, !- Actuated Component Unique Name
  OtherEquipment,                         !- Actuated Component Type
  Power Level;                            !- Actuated Component Control Type

EnergyManagementSystem:Actuator,
  air_source_heat_pump_airloop_0_SupSensLkToDZ_act, !- Name
  air source heat pump airloop_0 SupSensLkToDZ, !- Actuated Component Unique Name
  OtherEquipment,                         !- Actuated Component Type
  Power Level;                            !- Actuated Component Control Type

EnergyManagementSystem:Actuator,
  air_source_heat_pump_airloop_0_ZoneMixCondToDZ_mix_act, !- Name
  air source heat pump airloop_0 ZoneMixCondToDZ mix, !- Actuated Component Unique Name
  ZoneMixing,                             !- Actuated Component Type
  Air Exchange Flow Rate;                 !- Actuated Component Control Type

EnergyManagementSystem:Actuator,
  air_source_heat_pump_airloop_0_ZoneMixDZToCond_mix_act, !- Name
  air source heat pump airloop_0 ZoneMixDZToCond mix, !- Actuated Component Unique Name
  ZoneMixing,                             !- Actuated Component Type
  Air Exchange Flow Rate;                 !- Actuated Component Control Type

EnergyManagementSystem:Actuator,
  crawlspace_vented_1_duct_leakage_imbalance_infil_flow_act, !- Name
  crawlspace_vented 1 duct leakage imbalance infil flow, !- Actuated Component Unique Name
  Zone Infiltration,                      !- Actuated Component Type
  Air Exchange Flow Rate;                 !- Actuated Component Control Type

EnergyManagementSystem:Actuator,
  fridge_schedule_act,                    !- Name
  fridge schedule,                        !- Actuated Component Unique Name
  Schedule:Constant,                      !- Actuated Component Type
  Schedule Value;                         !- Actuated Component Control Type

EnergyManagementSystem:Actuator,
  infil_flow_act,                         !- Name
  infil flow,                             !- Actuated Component Unique Name
  Zone Infiltration,                      !- Actuated Component Type
  Air Exchange Flow Rate;                 !- Actuated Component Control Type

EnergyManagementSystem:Actuator,
  mech_vent_house_fan_cfis_act,           !- Name
  mech vent house fan cfis,               !- Actuated Component Unique Name
  ElectricEquipment,                      !- Actuated Component Type
  Electricity Rate;                       !- Actuated Component Control Type

EnergyManagementSystem:Actuator,
  mech_vent_house_fan_latent_load_act,    !- Name
  mech vent house fan latent load,        !- Actuated Component Unique Name
  OtherEquipment,                         !- Actuated Component Type
  Power Level;                            !- Actuated Component Control Type

EnergyManagementSystem:Actuator,
  mech_vent_house_fan_sensible_load_act,  !- Name
  mech vent house fan sensible load,      !- Actuated Component Unique Name
  OtherEquipment,                         !- Actuated Component Type
  Power Level;                            !- Actuated Component Control Type

EnergyManagementSystem:Actuator,
  natural_vent_flow_act,                  !- Name
  natural vent flow,                      !- Actuated Component Unique Name
  Zone Infiltration,                      !- Actuated Component Type
  Air Exchange Flow Rate;                 !- Actuated Component Control Type

EnergyManagementSystem:Actuator,
  water_heater_HPWHSchedOverride,         !- Name
  water heater setpoint,                  !- Actuated Component Unique Name
  Schedule:Constant,                      !- Actuated Component Type
  Schedule Value;                         !- Actuated Component Control Type

EnergyManagementSystem:Actuator,
  water_heater_hpwh_ec_adj_act,           !- Name
  water heater energy adjustment1,        !- Actuated Component Unique Name
  OtherEquipment,                         !- Actuated Component Type
  Power Level;                            !- Actuated Component Control Type

EnergyManagementSystem:Actuator,
  water_heater_lat_act,                   !- Name
  water heater lat,                       !- Actuated Component Unique Name
  OtherEquipment,                         !- Actuated Component Type
  Power Level;                            !- Actuated Component Control Type

EnergyManagementSystem:Actuator,
  water_heater_LESchedOverride,           !- Name
  water heater BottomElementSetpoint,     !- Actuated Component Unique Name
  Schedule:Constant,                      !- Actuated Component Type
  Schedule Value;                         !- Actuated Component Control Type

EnergyManagementSystem:Actuator,
  water_heater_RHamb_act,                 !- Name
  water heater RHamb act,                 !- Actuated Component Unique Name
  Schedule:Constant,                      !- Actuated Component Type
  Schedule Value;                         !- Actuated Component Control Type

EnergyManagementSystem:Actuator,
  water_heater_sens_act,                  !- Name
  water heater sens,                      !- Actuated Component Unique Name
  OtherEquipment,                         !- Actuated Component Type
  Power Level;                            !- Actuated Component Control Type

EnergyManagementSystem:Actuator,
  water_heater_Tamb_act,                  !- Name
  water heater Tamb act,                  !- Actuated Component Unique Name
  Schedule:Constant,                      !- Actuated Component Type
  Schedule Value;                         !- Actuated Component Control Type

EnergyManagementSystem:Actuator,
  water_heater_UESchedOverride,           !- Name
  water heater TopElementSetpoint,        !- Actuated Component Unique Name
  Schedule:Constant,                      !- Actuated Component Type
  Schedule Value;                         !- Actuated Component Control Type

EnergyManagementSystem:Actuator,
  whole_house_fan_act,                    !- Name
  whole house fan,                        !- Actuated Component Unique Name
  ElectricEquipment,                      !- Actuated Component Type
  Electricity Rate;                       !- Actuated Component Control Type

EnergyManagementSystem:Actuator,
  whole_house_fan_flow_act,               !- Name
  whole house fan flow,                   !- Actuated Component Unique Name
  Zone Infiltration,                      !- Actuated Component Type
  Air Exchange Flow Rate;                 !- Actuated Component Control Type

EnergyManagementSystem:Program,
  air_source_heat_pump_airloop_0_duct_program, !- Name
  Set air_source_heat_pump_airloop_AH_MFR = air_source_heat_pump_airloop_AH_MFR_s, !- Program Line 1
  Set air_source_heat_pump_airloop_Fan_RTF = 0, !- Program Line 2
  Set air_source_heat_pump_airloop_Fan_RTF = air_source_heat_pump_airloop_Fan_RTF + air_source_heat_pump_airloop_Fan_RTF_s, !- Program Line 3
  Set air_source_heat_pump_airloop_Fan_RTF = air_source_heat_pump_airloop_Fan_RTF + air_source_heat_pump_airloop_Fan_RTF_s_1, !- Program Line 4
  Set air_source_heat_pump_airloop_AH_VFR = air_source_heat_pump_airloop_AH_VFR_s, !- Program Line 5
  Set air_source_heat_pump_airloop_AH_Tout = air_source_heat_pump_airloop_AH_Tout_s, !- Program Line 6
  Set air_source_heat_pump_airloop_AH_Wout = air_source_heat_pump_airloop_AH_Wout_s, !- Program Line 7
  Set air_source_heat_pump_airloop_RA_T = air_source_heat_pump_airloop_RA_T_s, !- Program Line 8
  Set air_source_heat_pump_airloop_Ra_W = air_source_heat_pump_airloop_Ra_W_s, !- Program Line 9
  Set air_source_heat_pump_airloop_0_DZ_T = air_source_heat_pump_airloop_0_DZ_T_s, !- Program Line 10
  Set air_source_heat_pump_airloop_0_DZ_W = air_source_heat_pump_airloop_0_DZ_W_s, !- Program Line 11
  Run air_source_heat_pump_airloop_0_duct_subroutine, !- Program Line 12
  Set air_source_heat_pump_airloop_0_SupSensLkToCond_act = air_source_heat_pump_airloop_0_SupSensLkToCond, !- Program Line 13
  Set air_source_heat_pump_airloop_0_SupLatLkToCond_act = air_source_heat_pump_airloop_0_SupLatLkToCond, !- Program Line 14
  Set air_source_heat_pump_airloop_0_SupCondToLv_act = air_source_heat_pump_airloop_0_SupCondToLv, !- Program Line 15
  Set air_source_heat_pump_airloop_0_RetSensLkToRP_act = air_source_heat_pump_airloop_0_RetSensLkToRP, !- Program Line 16
  Set air_source_heat_pump_airloop_0_RetLatLkToRP_act = air_source_heat_pump_airloop_0_RetLatLkToRP, !- Program Line 17
  Set air_source_heat_pump_airloop_0_RetCondToRP_act = air_source_heat_pump_airloop_0_RetCondToRP, !- Program Line 18
  Set air_source_heat_pump_airloop_0_RetCondToDZ_act = air_source_heat_pump_airloop_0_RetCondToDZ, !- Program Line 19
  Set air_source_heat_pump_airloop_0_SupCondToDZ_act = air_source_heat_pump_airloop_0_SupCondToDZ, !- Program Line 20
  Set air_source_heat_pump_airloop_0_SupSensLkToDZ_act = air_source_heat_pump_airloop_0_SupSensLkToDZ, !- Program Line 21
  Set air_source_heat_pump_airloop_0_SupLatLkToDZ_act = air_source_heat_pump_airloop_0_SupLatLkToDZ, !- Program Line 22
  Set air_source_heat_pump_airloop_0_ZoneMixDZToCond_mix_act = air_source_heat_pump_airloop_0_ZoneMixDZToCond, !- Program Line 23
  Set air_source_heat_pump_airloop_0_ZoneMixCondToDZ_mix_act = air_source_heat_pump_airloop_0_ZoneMixCondToDZ; !- Program Line 24

EnergyManagementSystem:Program,
  air_source_heat_pump_supply_fan_disaggregate_program, !- Name
  Set air_source_heat_pump_supply_fan_clg = 0, !- Program Line 1
  Set air_source_heat_pump_supply_fan_primary_htg = 0, !- Program Line 2
  Set air_source_heat_pump_supply_fan_backup_htg = 0, !- Program Line 3
  If air_source_heat_pump_clg_coil_s > 0, !- Program Line 4
  Set air_source_heat_pump_supply_fan_clg = air_source_heat_pump_supply_fan_s, !- Program Line 5
  ElseIf air_source_heat_pump_htg_coil_s > 0 && (air_source_heat_pump_backup_htg_coil_s > 0), !- Program Line 6
  Set air_source_heat_pump_supply_fan_primary_htg = air_source_heat_pump_supply_fan_s * air_source_heat_pump_htg_coil_s / (air_source_heat_pump_htg_coil_s + air_source_heat_pump_backup_htg_coil_s), !- Program Line 7
  Set air_source_heat_pump_supply_fan_backup_htg = air_source_heat_pump_supply_fan_s * air_source_heat_pump_backup_htg_coil_s / (air_source_heat_pump_htg_coil_s + air_source_heat_pump_backup_htg_coil_s), !- Program Line 8
  ElseIf air_source_heat_pump_htg_coil_s > 0, !- Program Line 9
  Set air_source_heat_pump_supply_fan_primary_htg = air_source_heat_pump_supply_fan_s, !- Program Line 10
  Else,                                   !- Program Line 11
  Set air_source_heat_pump_supply_fan_backup_htg = air_source_heat_pump_supply_fan_s, !- Program Line 12
  EndIf;                                  !- Program Line 13

EnergyManagementSystem:Program,
  component_loads_program,                !- Name
  Set loads_htg_walls = 0,                !- Program Line 1
  Set loads_htg_rim_joists = 0,           !- Program Line 2
  Set loads_htg_foundation_walls = 0,     !- Program Line 3
  Set loads_htg_floors = 0,               !- Program Line 4
  Set loads_htg_slabs = 0,                !- Program Line 5
  Set loads_htg_ceilings = 0,             !- Program Line 6
  Set loads_htg_roofs = 0,                !- Program Line 7
  Set loads_htg_windows_conduction = 0,   !- Program Line 8
  Set loads_htg_windows_solar = 0,        !- Program Line 9
  Set loads_htg_doors = 0,                !- Program Line 10
  Set loads_htg_skylights_conduction = 0, !- Program Line 11
  Set loads_htg_skylights_solar = 0,      !- Program Line 12
  Set loads_htg_internal_mass = 0,        !- Program Line 13
  Set loads_htg_intgains = 0,             !- Program Line 14
  Set loads_htg_lighting = 0,             !- Program Line 15
  Set loads_htg_infil = 0,                !- Program Line 16
  Set loads_htg_mechvent = 0,             !- Program Line 17
  Set loads_htg_natvent = 0,              !- Program Line 18
  Set loads_htg_whf = 0,                  !- Program Line 19
  Set loads_htg_ducts = 0,                !- Program Line 20
  Set loads_clg_walls = 0,                !- Program Line 21
  Set loads_clg_rim_joists = 0,           !- Program Line 22
  Set loads_clg_foundation_walls = 0,     !- Program Line 23
  Set loads_clg_floors = 0,               !- Program Line 24
  Set loads_clg_slabs = 0,                !- Program Line 25
  Set loads_clg_ceilings = 0,             !- Program Line 26
  Set loads_clg_roofs = 0,                !- Program Line 27
  Set loads_clg_windows_conduction = 0,   !- Program Line 28
  Set loads_clg_windows_solar = 0,        !- Program Line 29
  Set loads_clg_doors = 0,                !- Program Line 30
  Set loads_clg_skylights_conduction = 0, !- Program Line 31
  Set loads_clg_skylights_solar = 0,      !- Program Line 32
  Set loads_clg_internal_mass = 0,        !- Program Line 33
  Set loads_clg_intgains = 0,             !- Program Line 34
  Set loads_clg_lighting = 0,             !- Program Line 35
  Set loads_clg_infil = 0,                !- Program Line 36
  Set loads_clg_mechvent = 0,             !- Program Line 37
  Set loads_clg_natvent = 0,              !- Program Line 38
  Set loads_clg_whf = 0,                  !- Program Line 39
  Set loads_clg_ducts = 0,                !- Program Line 40
  Set hr_walls = 0,                       !- Program Line 41
  Set hr_walls = hr_walls + s_conv_2 + s_ig_2 + s_sol_2 + s_lgt_2 + s_surf_2, !- Program Line 42
  Set hr_walls = hr_walls + s_conv_3 + s_ig_3 + s_sol_3 + s_lgt_3 + s_surf_3, !- Program Line 43
  Set hr_walls = hr_walls + s_conv_4 + s_ig_4 + s_sol_4 + s_lgt_4 + s_surf_4, !- Program Line 44
  Set hr_walls = hr_walls + s_conv_5 + s_ig_5 + s_sol_5 + s_lgt_5 + s_surf_5, !- Program Line 45
  Set hr_walls = hr_walls + s_conv_6 + s_ig_6 + s_sol_6 + s_lgt_6 + s_surf_6, !- Program Line 46
  Set hr_walls = hr_walls + s_conv_7 + s_ig_7 + s_sol_7 + s_lgt_7 + s_surf_7, !- Program Line 47
  Set hr_rim_joists = 0,                  !- Program Line 48
  Set hr_foundation_walls = 0,            !- Program Line 49
  Set hr_floors = 0,                      !- Program Line 50
  Set hr_floors = hr_floors + s_conv + s_ig + s_sol + s_lgt + s_surf, !- Program Line 51
  Set hr_slabs = 0,                       !- Program Line 52
  Set hr_ceilings = 0,                    !- Program Line 53
  Set hr_roofs = 0,                       !- Program Line 54
  Set hr_roofs = hr_roofs + s_conv_1 + s_ig_1 + s_sol_1 + s_lgt_1 + s_surf_1, !- Program Line 55
  Set hr_windows_conduction = 0,          !- Program Line 56
  Set hr_windows_conduction = hr_windows_conduction + ss_conv_1, !- Program Line 57
  Set hr_windows_conduction = hr_windows_conduction + ss_ig_1, !- Program Line 58
  Set hr_windows_conduction = hr_windows_conduction + ss_surf_1, !- Program Line 59
  Set hr_windows_conduction = hr_windows_conduction + ss_conv_2, !- Program Line 60
  Set hr_windows_conduction = hr_windows_conduction + ss_ig_2, !- Program Line 61
  Set hr_windows_conduction = hr_windows_conduction + ss_surf_2, !- Program Line 62
  Set hr_windows_conduction = hr_windows_conduction + ss_conv_3, !- Program Line 63
  Set hr_windows_conduction = hr_windows_conduction + ss_ig_3, !- Program Line 64
  Set hr_windows_conduction = hr_windows_conduction + ss_surf_3, !- Program Line 65
  Set hr_windows_conduction = hr_windows_conduction + ss_conv_4, !- Program Line 66
  Set hr_windows_conduction = hr_windows_conduction + ss_ig_4, !- Program Line 67
  Set hr_windows_conduction = hr_windows_conduction + ss_surf_4, !- Program Line 68
  Set hr_windows_solar = 0,               !- Program Line 69
  Set hr_windows_solar = hr_windows_solar - ss_trans_in * ZoneTimestep * 3600 + ss_back_out * ZoneTimestep * 3600 + ss_trans_out * ZoneTimestep * 3600, !- Program Line 70
  Set hr_windows_solar = hr_windows_solar - ss_trans_in_1 * ZoneTimestep * 3600 + ss_back_out_1 * ZoneTimestep * 3600 + ss_trans_out_1 * ZoneTimestep * 3600, !- Program Line 71
  Set hr_windows_solar = hr_windows_solar - ss_trans_in_2 * ZoneTimestep * 3600 + ss_back_out_2 * ZoneTimestep * 3600 + ss_trans_out_2 * ZoneTimestep * 3600, !- Program Line 72
  Set hr_windows_solar = hr_windows_solar - ss_trans_in_3 * ZoneTimestep * 3600 + ss_back_out_3 * ZoneTimestep * 3600 + ss_trans_out_3 * ZoneTimestep * 3600, !- Program Line 73
  Set hr_doors = 0,                       !- Program Line 74
  Set hr_doors = hr_doors + ss_sol,       !- Program Line 75
  Set hr_doors = hr_doors + ss_lgt,       !- Program Line 76
  Set hr_doors = hr_doors + ss_conv,      !- Program Line 77
  Set hr_doors = hr_doors + ss_ig,        !- Program Line 78
  Set hr_doors = hr_doors + ss_surf,      !- Program Line 79
  Set hr_skylights_conduction = 0,        !- Program Line 80
  Set hr_skylights_solar = 0,             !- Program Line 81
  Set hr_internal_mass = 0,               !- Program Line 82
  Set hr_internal_mass = hr_internal_mass + im_conv + im_ig + im_sol + im_lgt + im_surf, !- Program Line 83
  Set hr_internal_mass = hr_internal_mass + im_conv_1 + im_ig_1 + im_sol_1 + im_lgt_1 + im_surf_1, !- Program Line 84
  Set hr_intgains = 0,                    !- Program Line 85
  Set hr_intgains = hr_intgains - ig_ee_conv - ig_ee_rad - ig_ee_conv_1 - ig_ee_rad_1 - ig_ee_conv_2 - ig_ee_rad_2 - ig_ee_conv_3 - ig_ee_rad_3 - ig_ee_conv_4 - ig_ee_rad_4 - ig_ee_conv_5 - ig_ee_rad_5 - ig_oe_conv - ig_oe_rad - ig_oe_conv_1 - ig_oe_rad_1 - ig_oe_conv_2 - ig_oe_rad_2 - ig_ppl_conv - ig_ppl_rad, !- Program Line 86
  Set hr_lighting = 0,                    !- Program Line 87
  Set hr_lighting = hr_lighting - ig_lgt_conv - ig_lgt_rad - ig_lgt_vis, !- Program Line 88
  Set hr_infil = 0,                       !- Program Line 89
  Set hr_infil = hr_infil - airflow_gain + airflow_loss, !- Program Line 90
  Set hr_natvent = 0,                     !- Program Line 91
  Set hr_natvent = hr_natvent - airflow_gain_1 + airflow_loss_1, !- Program Line 92
  Set hr_whf = 0,                         !- Program Line 93
  Set hr_whf = hr_whf - airflow_gain_2 + airflow_loss_2, !- Program Line 94
  Set hr_mechvent = 0,                    !- Program Line 95
  Set hr_mechvent = hr_mechvent - mv_conv - mv_rad - mv_conv_1 - mv_rad_1 - mv_conv_2 - mv_rad_2 - mv_conv_3 - mv_rad_3 - mv_conv_4 - mv_rad_4 - mv_conv_5 - mv_rad_5, !- Program Line 96
  Set hr_ducts = 0,                       !- Program Line 97
  Set hr_ducts = hr_ducts - ducts_conv - ducts_rad - ducts_conv_1 - ducts_rad_1 - ducts_conv_2 - ducts_rad_2 - ducts_conv_3 - ducts_rad_3 - ducts_conv_4 - ducts_rad_4 - ducts_conv_5 - ducts_rad_5, !- Program Line 98
  Set hr_ducts = hr_ducts + (duct_mix_loss_1 - duct_mix_gain_1), !- Program Line 99
  Set htg_mode = 0,                       !- Program Line 100
  Set clg_mode = 0,                       !- Program Line 101
  If (htg_load_cond > 0),                 !- Program Line 102
  Set htg_mode = 1.0,                     !- Program Line 103
  ElseIf (clg_load_cond > 0),             !- Program Line 104
  Set clg_mode = 1.0,                     !- Program Line 105
  Else,                                   !- Program Line 106
  Set htg_season = 0,                     !- Program Line 107
  Set clg_season = 0,                     !- Program Line 108
  If ((DayOfYear >= 1) && (DayOfYear <= 365)), !- Program Line 109
  Set clg_season = 1,                     !- Program Line 110
  EndIf,                                  !- Program Line 111
  If ((DayOfYear >= 1) && (DayOfYear <= 365)), !- Program Line 112
  Set htg_season = 1,                     !- Program Line 113
  EndIf,                                  !- Program Line 114
  If ((airflow_gain_1 <> 0) || (airflow_loss_1 <> 0)) && (clg_season == 1), !- Program Line 115
  Set clg_mode = 1.0,                     !- Program Line 116
  ElseIf ((airflow_gain_2 <> 0) || (airflow_loss_2 <> 0)) && (clg_season == 1), !- Program Line 117
  Set clg_mode = 1.0,                     !- Program Line 118
  Else,                                   !- Program Line 119
  Set Tmid_setpoint = (htg_sp_s_1 + clg_sp_s_1) / 2, !- Program Line 120
  If (tin_s_1 > Tmid_setpoint) && (clg_season == 1), !- Program Line 121
  Set clg_mode = 1.0,                     !- Program Line 122
  ElseIf (tin_s_1 < Tmid_setpoint) && (htg_season == 1), !- Program Line 123
  Set htg_mode = 1.0,                     !- Program Line 124
  EndIf,                                  !- Program Line 125
  EndIf,                                  !- Program Line 126
  EndIf,                                  !- Program Line 127
  Set loads_htg_walls = loads_htg_walls + (hr_walls * htg_mode * 1), !- Program Line 128
  Set loads_htg_rim_joists = loads_htg_rim_joists + (hr_rim_joists * htg_mode * 1), !- Program Line 129
  Set loads_htg_foundation_walls = loads_htg_foundation_walls + (hr_foundation_walls * htg_mode * 1), !- Program Line 130
  Set loads_htg_floors = loads_htg_floors + (hr_floors * htg_mode * 1), !- Program Line 131
  Set loads_htg_slabs = loads_htg_slabs + (hr_slabs * htg_mode * 1), !- Program Line 132
  Set loads_htg_ceilings = loads_htg_ceilings + (hr_ceilings * htg_mode * 1), !- Program Line 133
  Set loads_htg_roofs = loads_htg_roofs + (hr_roofs * htg_mode * 1), !- Program Line 134
  Set loads_htg_windows_conduction = loads_htg_windows_conduction + (hr_windows_conduction * htg_mode * 1), !- Program Line 135
  Set loads_htg_windows_solar = loads_htg_windows_solar + (hr_windows_solar * htg_mode * 1), !- Program Line 136
  Set loads_htg_doors = loads_htg_doors + (hr_doors * htg_mode * 1), !- Program Line 137
  Set loads_htg_skylights_conduction = loads_htg_skylights_conduction + (hr_skylights_conduction * htg_mode * 1), !- Program Line 138
  Set loads_htg_skylights_solar = loads_htg_skylights_solar + (hr_skylights_solar * htg_mode * 1), !- Program Line 139
  Set loads_htg_internal_mass = loads_htg_internal_mass + (hr_internal_mass * htg_mode * 1), !- Program Line 140
  Set loads_htg_intgains = loads_htg_intgains + (hr_intgains * htg_mode * 1), !- Program Line 141
  Set loads_htg_lighting = loads_htg_lighting + (hr_lighting * htg_mode * 1), !- Program Line 142
  Set loads_htg_infil = loads_htg_infil + (hr_infil * htg_mode * 1), !- Program Line 143
  Set loads_htg_mechvent = loads_htg_mechvent + (hr_mechvent * htg_mode * 1), !- Program Line 144
  Set loads_htg_natvent = loads_htg_natvent + (hr_natvent * htg_mode * 1), !- Program Line 145
  Set loads_htg_whf = loads_htg_whf + (hr_whf * htg_mode * 1), !- Program Line 146
  Set loads_htg_ducts = loads_htg_ducts + (hr_ducts * htg_mode * 1), !- Program Line 147
  Set loads_clg_walls = loads_clg_walls + (-hr_walls * clg_mode * 1), !- Program Line 148
  Set loads_clg_rim_joists = loads_clg_rim_joists + (-hr_rim_joists * clg_mode * 1), !- Program Line 149
  Set loads_clg_foundation_walls = loads_clg_foundation_walls + (-hr_foundation_walls * clg_mode * 1), !- Program Line 150
  Set loads_clg_floors = loads_clg_floors + (-hr_floors * clg_mode * 1), !- Program Line 151
  Set loads_clg_slabs = loads_clg_slabs + (-hr_slabs * clg_mode * 1), !- Program Line 152
  Set loads_clg_ceilings = loads_clg_ceilings + (-hr_ceilings * clg_mode * 1), !- Program Line 153
  Set loads_clg_roofs = loads_clg_roofs + (-hr_roofs * clg_mode * 1), !- Program Line 154
  Set loads_clg_windows_conduction = loads_clg_windows_conduction + (-hr_windows_conduction * clg_mode * 1), !- Program Line 155
  Set loads_clg_windows_solar = loads_clg_windows_solar + (-hr_windows_solar * clg_mode * 1), !- Program Line 156
  Set loads_clg_doors = loads_clg_doors + (-hr_doors * clg_mode * 1), !- Program Line 157
  Set loads_clg_skylights_conduction = loads_clg_skylights_conduction + (-hr_skylights_conduction * clg_mode * 1), !- Program Line 158
  Set loads_clg_skylights_solar = loads_clg_skylights_solar + (-hr_skylights_solar * clg_mode * 1), !- Program Line 159
  Set loads_clg_internal_mass = loads_clg_internal_mass + (-hr_internal_mass * clg_mode * 1), !- Program Line 160
  Set loads_clg_intgains = loads_clg_intgains + (-hr_intgains * clg_mode * 1), !- Program Line 161
  Set loads_clg_lighting = loads_clg_lighting + (-hr_lighting * clg_mode * 1), !- Program Line 162
  Set loads_clg_infil = loads_clg_infil + (-hr_infil * clg_mode * 1), !- Program Line 163
  Set loads_clg_mechvent = loads_clg_mechvent + (-hr_mechvent * clg_mode * 1), !- Program Line 164
  Set loads_clg_natvent = loads_clg_natvent + (-hr_natvent * clg_mode * 1), !- Program Line 165
  Set loads_clg_whf = loads_clg_whf + (-hr_whf * clg_mode * 1), !- Program Line 166
  Set loads_clg_ducts = loads_clg_ducts + (-hr_ducts * clg_mode * 1); !- Program Line 167

EnergyManagementSystem:Program,
  crawlspace_vented_1_duct_leakage_imbalance_infil_program, !- Name
  Set Qducts = 0,                         !- Program Line 1
  Set Qducts = Qducts - air_source_heat_pump_airloop_0_DuctImbalLkSupFanEquivDZ, !- Program Line 2
  Set Qducts = Qducts + air_source_heat_pump_airloop_0_DuctImbalLkExhFanEquivDZ, !- Program Line 3
  Set crawlspace_vented_1_duct_leakage_imbalance_infil_flow_act = (@Abs(Qducts)); !- Program Line 4

EnergyManagementSystem:Program,
  fridge_schedule_program,                !- Name
  Set Tin = fridge_tin_s*(9.0/5.0)+32.0,  !- Program Line 1
  Set fridge_schedule_act = 0,            !- Program Line 2
  If (Hour == 0),                         !- Program Line 3
  Set fridge_schedule_act = (-0.487+0.019*Tin), !- Program Line 4
  ElseIf (Hour == 1),                     !- Program Line 5
  Set fridge_schedule_act = (-0.34+0.016*Tin), !- Program Line 6
  ElseIf (Hour == 2),                     !- Program Line 7
  Set fridge_schedule_act = (-0.37+0.017*Tin), !- Program Line 8
  ElseIf (Hour == 3),                     !- Program Line 9
  Set fridge_schedule_act = (-0.361+0.016*Tin), !- Program Line 10
  ElseIf (Hour == 4),                     !- Program Line 11
  Set fridge_schedule_act = (-0.515+0.018*Tin), !- Program Line 12
  ElseIf (Hour == 5),                     !- Program Line 13
  Set fridge_schedule_act = (-0.684+0.021*Tin), !- Program Line 14
  ElseIf (Hour == 6),                     !- Program Line 15
  Set fridge_schedule_act = (-0.471+0.019*Tin), !- Program Line 16
  ElseIf (Hour == 7),                     !- Program Line 17
  Set fridge_schedule_act = (-0.159+0.015*Tin), !- Program Line 18
  ElseIf (Hour == 8),                     !- Program Line 19
  Set fridge_schedule_act = (-0.079+0.015*Tin), !- Program Line 20
  ElseIf (Hour == 9),                     !- Program Line 21
  Set fridge_schedule_act = (-0.417+0.019*Tin), !- Program Line 22
  ElseIf (Hour == 10),                    !- Program Line 23
  Set fridge_schedule_act = (-0.411+0.018*Tin), !- Program Line 24
  ElseIf (Hour == 11),                    !- Program Line 25
  Set fridge_schedule_act = (-0.386+0.018*Tin), !- Program Line 26
  ElseIf (Hour == 12),                    !- Program Line 27
  Set fridge_schedule_act = (-0.24+0.016*Tin), !- Program Line 28
  ElseIf (Hour == 13),                    !- Program Line 29
  Set fridge_schedule_act = (-0.314+0.017*Tin), !- Program Line 30
  ElseIf (Hour == 14),                    !- Program Line 31
  Set fridge_schedule_act = (-0.16+0.015*Tin), !- Program Line 32
  ElseIf (Hour == 15),                    !- Program Line 33
  Set fridge_schedule_act = (-0.121+0.015*Tin), !- Program Line 34
  ElseIf (Hour == 16),                    !- Program Line 35
  Set fridge_schedule_act = (-0.469+0.02*Tin), !- Program Line 36
  ElseIf (Hour == 17),                    !- Program Line 37
  Set fridge_schedule_act = (-0.412+0.02*Tin), !- Program Line 38
  ElseIf (Hour == 18),                    !- Program Line 39
  Set fridge_schedule_act = (-0.091+0.017*Tin), !- Program Line 40
  ElseIf (Hour == 19),                    !- Program Line 41
  Set fridge_schedule_act = (0.077+0.014*Tin), !- Program Line 42
  ElseIf (Hour == 20),                    !- Program Line 43
  Set fridge_schedule_act = (-0.118+0.016*Tin), !- Program Line 44
  ElseIf (Hour == 21),                    !- Program Line 45
  Set fridge_schedule_act = (-0.247+0.017*Tin), !- Program Line 46
  ElseIf (Hour == 22),                    !- Program Line 47
  Set fridge_schedule_act = (-0.445+0.019*Tin), !- Program Line 48
  ElseIf (Hour == 23),                    !- Program Line 49
  Set fridge_schedule_act = (-0.544+0.02*Tin), !- Program Line 50
  EndIf;                                  !- Program Line 51

EnergyManagementSystem:Program,
  infil_program,                          !- Name
  Set p_m = 0.14,                         !- Program Line 1
  Set p_s = 0.22,                         !- Program Line 2
  Set s_m = 270,                          !- Program Line 3
  Set s_s = 370,                          !- Program Line 4
  Set z_m = 9.99744,                      !- Program Line 5
  Set z_s = 2.4384,                       !- Program Line 6
  Set f_t = (((s_m/z_m)^p_m)*((z_s/s_s)^p_s)), !- Program Line 7
  Set Tdiff = tin_s-tout_s,               !- Program Line 8
  Set dT = @Abs Tdiff,                    !- Program Line 9
  Set c = 0.1247,                         !- Program Line 10
  Set Cs = 0.0556,                        !- Program Line 11
  Set Cw = 0.1017,                        !- Program Line 12
  Set n = 0.65,                           !- Program Line 13
  Set sft = (f_t*0.5),                    !- Program Line 14
  Set temp1 = ((c*Cw)*((sft*site_vw_s)^(2*n)))^2, !- Program Line 15
  Set Qinf = (((c*Cs*(dT^n))^2)+temp1)^0.5, !- Program Line 16
  Set Qinf = (@Max Qinf 0),               !- Program Line 17
  Set mech_vent_house_fan_sensible_load_act = 0.0, !- Program Line 18
  Set mech_vent_house_fan_latent_load_act = 0.0, !- Program Line 19
  Set OASupInPb = out_pb_s,               !- Program Line 20
  Set OASupInTemp = tout_s,               !- Program Line 21
  Set OASupInW = out_wt_s,                !- Program Line 22
  Set OASupRho = (@RhoAirFnPbTdbW OASupInPb OASupInTemp OASupInW), !- Program Line 23
  Set OASupCp = (@CpAirFnW OASupInW),     !- Program Line 24
  Set OASupInEnth = (@HFnTdbW OASupInTemp OASupInW), !- Program Line 25
  Set ZoneTemp = tin_s,                   !- Program Line 26
  Set ZoneW = win_s,                      !- Program Line 27
  Set ZoneCp = (@CpAirFnW ZoneW),         !- Program Line 28
  Set ZoneAirEnth = (@HFnTdbW ZoneTemp ZoneW), !- Program Line 29
  Set mech_vent_house_fan_cfis_act = 0.0, !- Program Line 30
  Set QWHV_cfis_sup = 0.0,                !- Program Line 31
  Set QWHV_cfis_suppl_sup = 0.0,          !- Program Line 32
  Set QWHV_cfis_suppl_exh = 0.0,          !- Program Line 33
  Set Qrange = 0,                         !- Program Line 34
  Set Qrange = Qrange + 0.04719 * mech_vent_range_fan_0_sch_s, !- Program Line 35
  Set Qbath = 0,                          !- Program Line 36
  Set Qbath = Qbath + 0.04719 * mech_vent_bath_fan_0_sch_s, !- Program Line 37
  Set Qdryer = 0,                         !- Program Line 38
  Set QWHV_sup = 0.0,                     !- Program Line 39
  Set QWHV_exh = 0.0,                     !- Program Line 40
  Set Qsupply = QWHV_sup + QWHV_cfis_sup + QWHV_cfis_suppl_sup, !- Program Line 41
  Set Qexhaust = Qrange + Qbath + Qdryer + QWHV_exh + QWHV_cfis_suppl_exh, !- Program Line 42
  Set Qfan = (@Max Qexhaust Qsupply),     !- Program Line 43
  Set Qducts = 0,                         !- Program Line 44
  Set Qducts = Qducts - air_source_heat_pump_airloop_0_DuctImbalLkSupFanEquivCond, !- Program Line 45
  Set Qducts = Qducts + air_source_heat_pump_airloop_0_DuctImbalLkExhFanEquivCond, !- Program Line 46
  If Qducts < 0,                          !- Program Line 47
  Set Qsupply = Qsupply - Qducts,         !- Program Line 48
  Else,                                   !- Program Line 49
  Set Qexhaust = Qexhaust + Qducts,       !- Program Line 50
  EndIf,                                  !- Program Line 51
  Set Qfan_with_ducts = (@Max Qexhaust Qsupply), !- Program Line 52
  Set Qimb = (@Abs (Qsupply - Qexhaust)), !- Program Line 53
  If Qinf + Qimb > 0,                     !- Program Line 54
  Set Qtot = Qfan_with_ducts + (Qinf^2) / (Qinf + Qimb), !- Program Line 55
  Else,                                   !- Program Line 56
  Set Qtot = Qfan_with_ducts,             !- Program Line 57
  EndIf,                                  !- Program Line 58
  Set Qinf_adj = Qtot - Qfan,             !- Program Line 59
  Set infil_flow_act = Qinf_adj,          !- Program Line 60
  Set infil_program_Qinf = Qinf_adj,      !- Program Line 61
  Set infil_program_Qfan = Qfan,          !- Program Line 62
  Set Qload = Qfan,                       !- Program Line 63
  Set Effectiveness_Sens = 0.0,           !- Program Line 64
  Set Effectiveness_Lat = 0.0,            !- Program Line 65
  Set Fan_MFR = Qload * OASupRho,         !- Program Line 66
  Set ZoneInEnth = OASupInEnth,           !- Program Line 67
  Set ZoneInTemp = OASupInTemp,           !- Program Line 68
  Set FanTotalToCond = Fan_MFR * (ZoneInEnth - ZoneAirEnth), !- Program Line 69
  Set FanSensToCond = Fan_MFR * ZoneCp * (ZoneInTemp - ZoneTemp), !- Program Line 70
  Set FanLatToCond = FanTotalToCond - FanSensToCond, !- Program Line 71
  Set mech_vent_house_fan_sensible_load_act = mech_vent_house_fan_sensible_load_act + FanSensToCond, !- Program Line 72
  Set mech_vent_house_fan_latent_load_act = mech_vent_house_fan_latent_load_act + FanLatToCond; !- Program Line 73

EnergyManagementSystem:Program,
  natural_vent_program,                   !- Name
  Set Tin = tin_s,                        !- Program Line 1
  Set Tout = tout_s,                      !- Program Line 2
  Set Wout = out_wt_s,                    !- Program Line 3
  Set Pbar = out_pb_s,                    !- Program Line 4
  Set Phiout = (@RhFnTdbWPb Tout Wout Pbar), !- Program Line 5
  Set MaxHR = 0.0115,                     !- Program Line 6
  Set Tnvsp = (htg_sp_s + clg_sp_s) / 2,  !- Program Line 7
  Set NVavail = natural_vent_s,           !- Program Line 8
  Set ClgSsnAvail = cool_season,          !- Program Line 9
  Set Qnv = 0,                            !- Program Line 10
  Set Qwhf = 0,                           !- Program Line 11
  Set whole_house_fan_act = 0,            !- Program Line 12
  If ((Wout < MaxHR) && (Tin > Tout) && (Tin > Tnvsp) && (ClgSsnAvail > 0)), !- Program Line 13
  Set WHF_Flow = 0,                       !- Program Line 14
  Set Adj = (Tin-Tnvsp)/(Tin-Tout),       !- Program Line 15
  Set Adj = (@Min Adj 1),                 !- Program Line 16
  Set Adj = (@Max Adj 0),                 !- Program Line 17
  If (WHF_Flow > 0),                      !- Program Line 18
  Set Qwhf = WHF_Flow*Adj,                !- Program Line 19
  Set WHF_W = 0,                          !- Program Line 20
  Set whole_house_fan_act = WHF_W*Adj,    !- Program Line 21
  ElseIf (NVavail > 0),                   !- Program Line 22
  Set NVArea = 4033.4783846400005,        !- Program Line 23
  Set Cs = 8.968567957270247e-05,         !- Program Line 24
  Set Cw = 6.531778328561744e-05,         !- Program Line 25
  Set Tdiff = Tin-Tout,                   !- Program Line 26
  Set dT = (@Abs Tdiff),                  !- Program Line 27
  Set Vwind = site_vw_s,                  !- Program Line 28
  Set SGNV = NVArea*Adj*((((Cs*dT)+(Cw*(Vwind^2)))^0.5)/1000), !- Program Line 29
  Set MaxNV = 2.1369780228096005,         !- Program Line 30
  Set Qnv = (@Min SGNV MaxNV),            !- Program Line 31
  EndIf,                                  !- Program Line 32
  EndIf,                                  !- Program Line 33
  Set natural_vent_flow_act = Qnv,        !- Program Line 34
  Set whole_house_fan_flow_act = Qwhf,    !- Program Line 35
  Set natural_vent_program_Qnv = Qnv,     !- Program Line 36
  Set natural_vent_program_Qwhf = Qwhf;   !- Program Line 37

EnergyManagementSystem:Program,
  total_airflows_program,                 !- Name
  Set total_infil_flow_rate = 0,          !- Program Line 1
  Set total_mechvent_flow_rate = 0,       !- Program Line 2
  Set total_natvent_flow_rate = 0,        !- Program Line 3
  Set total_whf_flow_rate = 0,            !- Program Line 4
  Set total_infil_flow_rate = total_infil_flow_rate + (infil_program_Qinf * 1), !- Program Line 5
  Set total_mechvent_flow_rate = total_mechvent_flow_rate + (infil_program_Qfan * 1), !- Program Line 6
  Set total_natvent_flow_rate = total_natvent_flow_rate + (natural_vent_program_Qnv * 1), !- Program Line 7
  Set total_whf_flow_rate = total_whf_flow_rate + (natural_vent_program_Qwhf * 1); !- Program Line 8

EnergyManagementSystem:Program,
  total_loads_program,                    !- Name
  Set loads_htg_tot = 0,                  !- Program Line 1
  Set loads_clg_tot = 0,                  !- Program Line 2
  If htg_load_cond > 0,                   !- Program Line 3
  Set loads_htg_tot = loads_htg_tot + (htg_load_cond - clg_load_cond) * 1.0, !- Program Line 4
  Set loads_htg_tot = loads_htg_tot + (htg_load_duct - clg_load_duct) * 1.0, !- Program Line 5
  EndIf,                                  !- Program Line 6
  Set loads_htg_tot = (@Max loads_htg_tot 0), !- Program Line 7
  If clg_load_cond > 0,                   !- Program Line 8
  Set loads_clg_tot = loads_clg_tot + (clg_load_cond - htg_load_cond) * 1.0, !- Program Line 9
  Set loads_clg_tot = loads_clg_tot + (clg_load_duct - htg_load_duct) * 1.0, !- Program Line 10
  EndIf,                                  !- Program Line 11
  Set loads_clg_tot = (@Max loads_clg_tot 0); !- Program Line 12

EnergyManagementSystem:Program,
  unmet_hours_program,                    !- Name
  Set htg_unmet_hours = 0,                !- Program Line 1
  Set clg_unmet_hours = 0,                !- Program Line 2
  Set unit_htg_unmet_hours = 0,           !- Program Line 3
  If ((DayOfYear >= 1) && (DayOfYear <= 365)), !- Program Line 4
  Set unit_htg_unmet_hours = unit_htg_unmet_hours + conditioned_space_htg_unmet_s, !- Program Line 5
  If unit_htg_unmet_hours > htg_unmet_hours, !- Program Line 6
  Set htg_unmet_hours = unit_htg_unmet_hours, !- Program Line 7
  EndIf,                                  !- Program Line 8
  EndIf,                                  !- Program Line 9
  Set unit_clg_unmet_hours = 0,           !- Program Line 10
  If ((DayOfYear >= 1) && (DayOfYear <= 365)), !- Program Line 11
  Set unit_clg_unmet_hours = unit_clg_unmet_hours + conditioned_space_clg_unmet_s, !- Program Line 12
  If unit_clg_unmet_hours > clg_unmet_hours, !- Program Line 13
  Set clg_unmet_hours = unit_clg_unmet_hours, !- Program Line 14
  EndIf,                                  !- Program Line 15
  EndIf;                                  !- Program Line 16

EnergyManagementSystem:Program,
  water_heater_Control,                   !- Name
  Set water_heater_HPWHSchedOverride = water_heater_T_set, !- Program Line 1
  If (water_heater_amb_temp<5.56) || (water_heater_amb_temp>48.89), !- Program Line 2
  Set water_heater_UESchedOverride = water_heater_T_set, !- Program Line 3
  Set water_heater_LESchedOverride = water_heater_T_set, !- Program Line 4
  Else,                                   !- Program Line 5
  Set water_heater_UESchedOverride = water_heater_T_set - 9.0, !- Program Line 6
  Set water_heater_LESchedOverride = 0,   !- Program Line 7
  EndIf;                                  !- Program Line 8

EnergyManagementSystem:Program,
  water_heater_hpwh_EC_adj,               !- Name
  If WarmupFlag == 0,                     !- Program Line 1
  Set dhw_e_cons = water_heater_tank_energy + water_heater_tank_on_cycle_parasitic + water_heater_tank_off_cycle_parasitic + water_heater_coil_energy + water_heater_fan_energy, !- Program Line 2
  Set water_heater_hpwh_ec_adj_act = 0.0 * dhw_e_cons / 1, !- Program Line 3
  EndIf;                                  !- Program Line 4

EnergyManagementSystem:Program,
  water_heater_InletAir,                  !- Name
  Set water_heater_Tamb_act = water_heater_amb_temp, !- Program Line 1
  Set water_heater_RHamb_act = 0,         !- Program Line 2
  Set water_heater_RHamb_act = water_heater_RHamb_act + (water_heater_amb_rh / 100) / 1, !- Program Line 3
  Set water_heater_sens_act = (0 - water_heater_sens_cool - (water_heater_tl + water_heater_fan_pwr)) / 1, !- Program Line 4
  Set water_heater_lat_act = (0 - water_heater_lat_cool) / 1; !- Program Line 5

EnergyManagementSystem:Subroutine,
  air_source_heat_pump_airloop_0_duct_subroutine, !- Name
  Set AH_MFR = air_source_heat_pump_airloop_AH_MFR / 1, !- Program Line 1
  If AH_MFR > 0,                          !- Program Line 2
  Set AH_Tout = air_source_heat_pump_airloop_AH_Tout, !- Program Line 3
  Set AH_Wout = air_source_heat_pump_airloop_AH_Wout, !- Program Line 4
  Set RA_T = air_source_heat_pump_airloop_RA_T, !- Program Line 5
  Set RA_W = air_source_heat_pump_airloop_Ra_W, !- Program Line 6
  Set Fan_RTF = air_source_heat_pump_airloop_Fan_RTF, !- Program Line 7
  Set DZ_T = air_source_heat_pump_airloop_0_DZ_T, !- Program Line 8
  Set DZ_W = air_source_heat_pump_airloop_0_DZ_W, !- Program Line 9
  Set AH_VFR = air_source_heat_pump_airloop_AH_VFR / 1, !- Program Line 10
  Set h_SA = (@HFnTdbW AH_Tout AH_Wout),  !- Program Line 11
  Set h_RA = (@HFnTdbW RA_T RA_W),        !- Program Line 12
  Set h_fg = (@HfgAirFnWTdb AH_Wout AH_Tout), !- Program Line 13
  Set h_DZ = (@HFnTdbW DZ_T DZ_W),        !- Program Line 14
  Set air_cp = 1006.0,                    !- Program Line 15
  Set f_sup = 0.133,                      !- Program Line 16
  Set f_ret = 0.067,                      !- Program Line 17
  Set sup_lk_mfr = f_sup * AH_MFR,        !- Program Line 18
  Set ret_lk_mfr = f_ret * AH_MFR,        !- Program Line 19
  Set SupTotLkToCond = sup_lk_mfr*(h_RA - h_SA), !- Program Line 20
  Set SupLatLkToCond = sup_lk_mfr*h_fg*(RA_W-AH_Wout), !- Program Line 21
  Set SupSensLkToCond = SupTotLkToCond-SupLatLkToCond, !- Program Line 22
  Set supply_ua = 142.257,                !- Program Line 23
  Set eTm = 0-((Fan_RTF/(AH_MFR*air_cp))*supply_ua), !- Program Line 24
  Set t_sup = DZ_T+((AH_Tout-DZ_T)*(@Exp eTm)), !- Program Line 25
  Set SupCondToCond = AH_MFR*air_cp*(t_sup-AH_Tout), !- Program Line 26
  Set SupCondToDZ = 0-SupCondToCond,      !- Program Line 27
  Set return_ua = 26.344,                 !- Program Line 28
  Set eTm = 0-((Fan_RTF/(AH_MFR*air_cp))*return_ua), !- Program Line 29
  Set t_ret = DZ_T+((RA_T-DZ_T)*(@Exp eTm)), !- Program Line 30
  Set RetCondToRP = AH_MFR*air_cp*(t_ret-RA_T), !- Program Line 31
  Set RetCondToDZ = 0-RetCondToRP,        !- Program Line 32
  Set RetLatLkToRP = 0,                   !- Program Line 33
  Set RetSensLkToRP = ret_lk_mfr*air_cp*(DZ_T-RA_T), !- Program Line 34
  Set SupTotLkToDZ = sup_lk_mfr*(h_SA-h_DZ), !- Program Line 35
  Set SupLatLkToDZ = sup_lk_mfr*h_fg*(AH_Wout-DZ_W), !- Program Line 36
  Set SupSensLkToDZ = SupTotLkToDZ-SupLatLkToDZ, !- Program Line 37
  Set FracOutsideToCond = 1.0,            !- Program Line 38
  Set FracOutsideToDZ = 0.0,              !- Program Line 39
  Set FracCondToOutside = 0.0,            !- Program Line 40
  Set FracDZToOutside = 1.0,              !- Program Line 41
  Set FracDZToCond = 0.0,                 !- Program Line 42
  Set FracCondToDZ = 0.0,                 !- Program Line 43
  Set lk_imbal_vfr = @ABS(f_sup - f_ret) * AH_VFR, !- Program Line 44
  Set ImbalLkCondToDZ = lk_imbal_vfr * FracCondToDZ, !- Program Line 45
  Set ImbalLkDZToCond = lk_imbal_vfr * FracDZToCond, !- Program Line 46
  Set ImbalLkOutsideToCond = lk_imbal_vfr * FracOutsideToCond, !- Program Line 47
  Set ImbalLkOutsideToDZ = lk_imbal_vfr * FracOutsideToDZ, !- Program Line 48
  Set ImbalLkCondToOutside = lk_imbal_vfr * FracCondToOutside, !- Program Line 49
  Set ImbalLkDZToOutside = lk_imbal_vfr * FracDZToOutside, !- Program Line 50
  Else,                                   !- Program Line 51
  Set SupLatLkToCond = 0,                 !- Program Line 52
  Set SupSensLkToCond = 0,                !- Program Line 53
  Set SupCondToCond = 0,                  !- Program Line 54
  Set RetCondToRP = 0,                    !- Program Line 55
  Set RetLatLkToRP = 0,                   !- Program Line 56
  Set RetSensLkToRP = 0,                  !- Program Line 57
  Set RetCondToDZ = 0,                    !- Program Line 58
  Set SupCondToDZ = 0,                    !- Program Line 59
  Set SupLatLkToDZ = 0,                   !- Program Line 60
  Set SupSensLkToDZ = 0,                  !- Program Line 61
  Set ImbalLkCondToDZ = 0,                !- Program Line 62
  Set ImbalLkDZToCond = 0,                !- Program Line 63
  Set ImbalLkOutsideToCond = 0,           !- Program Line 64
  Set ImbalLkOutsideToDZ = 0,             !- Program Line 65
  Set ImbalLkCondToOutside = 0,           !- Program Line 66
  Set ImbalLkDZToOutside = 0,             !- Program Line 67
  EndIf,                                  !- Program Line 68
  Set air_source_heat_pump_airloop_0_SupLatLkToCond = SupLatLkToCond, !- Program Line 69
  Set air_source_heat_pump_airloop_0_SupSensLkToCond = SupSensLkToCond, !- Program Line 70
  Set air_source_heat_pump_airloop_0_SupCondToLv = SupCondToCond, !- Program Line 71
  Set air_source_heat_pump_airloop_0_RetCondToRP = RetCondToRP, !- Program Line 72
  Set air_source_heat_pump_airloop_0_RetLatLkToRP = RetLatLkToRP, !- Program Line 73
  Set air_source_heat_pump_airloop_0_RetSensLkToRP = RetSensLkToRP, !- Program Line 74
  Set air_source_heat_pump_airloop_0_RetCondToDZ = RetCondToDZ, !- Program Line 75
  Set air_source_heat_pump_airloop_0_SupCondToDZ = SupCondToDZ, !- Program Line 76
  Set air_source_heat_pump_airloop_0_SupLatLkToDZ = SupLatLkToDZ, !- Program Line 77
  Set air_source_heat_pump_airloop_0_SupSensLkToDZ = SupSensLkToDZ, !- Program Line 78
  Set air_source_heat_pump_airloop_0_ZoneMixCondToDZ = ImbalLkCondToDZ, !- Program Line 79
  Set air_source_heat_pump_airloop_0_ZoneMixDZToCond = ImbalLkDZToCond, !- Program Line 80
  Set air_source_heat_pump_airloop_0_DuctImbalLkSupFanEquivCond = ImbalLkCondToOutside, !- Program Line 81
  Set air_source_heat_pump_airloop_0_DuctImbalLkExhFanEquivCond = ImbalLkOutsideToCond, !- Program Line 82
  Set air_source_heat_pump_airloop_0_DuctImbalLkSupFanEquivDZ = ImbalLkDZToOutside, !- Program Line 83
  Set air_source_heat_pump_airloop_0_DuctImbalLkExhFanEquivDZ = ImbalLkOutsideToDZ; !- Program Line 84

EnergyManagementSystem:ProgramCallingManager,
  air_source_heat_pump_airloop_0_duct_program_calling_manager, !- Name
  EndOfSystemTimestepAfterHVACReporting,  !- EnergyPlus Model Calling Point
  air_source_heat_pump_airloop_0_duct_program; !- Program Name 1

EnergyManagementSystem:ProgramCallingManager,
  air_source_heat_pump_supply_fan_disaggregate_program_calling_manager, !- Name
  EndOfSystemTimestepBeforeHVACReporting, !- EnergyPlus Model Calling Point
  air_source_heat_pump_supply_fan_disaggregate_program; !- Program Name 1

EnergyManagementSystem:ProgramCallingManager,
  component_loads_program_calling_manager, !- Name
  EndOfZoneTimestepAfterZoneReporting,    !- EnergyPlus Model Calling Point
  component_loads_program;                !- Program Name 1

EnergyManagementSystem:ProgramCallingManager,
  crawlspace_vented_1_duct_leakage_imbalance_infil_program_calling_manager, !- Name
  BeginZoneTimestepAfterInitHeatBalance,  !- EnergyPlus Model Calling Point
  crawlspace_vented_1_duct_leakage_imbalance_infil_program; !- Program Name 1

EnergyManagementSystem:ProgramCallingManager,
  fridge_schedule_program_calling_manager, !- Name
  BeginZoneTimestepAfterInitHeatBalance,  !- EnergyPlus Model Calling Point
  fridge_schedule_program;                !- Program Name 1

EnergyManagementSystem:ProgramCallingManager,
  infil_program_calling_manager,          !- Name
  BeginZoneTimestepAfterInitHeatBalance,  !- EnergyPlus Model Calling Point
  infil_program;                          !- Program Name 1

EnergyManagementSystem:ProgramCallingManager,
  natural_vent_program_calling_manager,   !- Name
  BeginZoneTimestepAfterInitHeatBalance,  !- EnergyPlus Model Calling Point
  natural_vent_program;                   !- Program Name 1

EnergyManagementSystem:ProgramCallingManager,
  total_airflows_program_calling_manager, !- Name
  EndOfZoneTimestepAfterZoneReporting,    !- EnergyPlus Model Calling Point
  total_airflows_program;                 !- Program Name 1

EnergyManagementSystem:ProgramCallingManager,
  total_loads_program_calling_manager,    !- Name
  EndOfZoneTimestepAfterZoneReporting,    !- EnergyPlus Model Calling Point
  total_loads_program;                    !- Program Name 1

EnergyManagementSystem:ProgramCallingManager,
  unmet_hours_program_calling_manager,    !- Name
  EndOfZoneTimestepBeforeZoneReporting,   !- EnergyPlus Model Calling Point
  unmet_hours_program;                    !- Program Name 1

EnergyManagementSystem:ProgramCallingManager,
  water_heater_hpwh_EC_adj_ProgramManager, !- Name
  EndOfSystemTimestepBeforeHVACReporting, !- EnergyPlus Model Calling Point
  water_heater_hpwh_EC_adj;               !- Program Name 1

EnergyManagementSystem:ProgramCallingManager,
  water_heater_ProgramManager,            !- Name
  InsideHVACSystemIterationLoop,          !- EnergyPlus Model Calling Point
  water_heater_Control,                   !- Program Name 1
  water_heater_InletAir;                  !- Program Name 2

EnergyManagementSystem:OutputVariable,
  air source heat pump supply fan disaggregate clg, !- Name
  air_source_heat_pump_supply_fan_clg,    !- EMS Variable Name
  Summed,                                 !- Type of Data in Variable
  SystemTimestep,                         !- Update Frequency
  air_source_heat_pump_supply_fan_disaggregate_program, !- EMS Program or Subroutine Name
  J;                                      !- Units

EnergyManagementSystem:OutputVariable,
  air source heat pump supply fan disaggregate htg backup, !- Name
  air_source_heat_pump_supply_fan_backup_htg, !- EMS Variable Name
  Summed,                                 !- Type of Data in Variable
  SystemTimestep,                         !- Update Frequency
  air_source_heat_pump_supply_fan_disaggregate_program, !- EMS Program or Subroutine Name
  J;                                      !- Units

EnergyManagementSystem:OutputVariable,
  air source heat pump supply fan disaggregate htg primary, !- Name
  air_source_heat_pump_supply_fan_primary_htg, !- EMS Variable Name
  Summed,                                 !- Type of Data in Variable
  SystemTimestep,                         !- Update Frequency
  air_source_heat_pump_supply_fan_disaggregate_program, !- EMS Program or Subroutine Name
  J;                                      !- Units

OutputControl:Table:Style,
  HTML;                                   !- Column Separator

Output:VariableDictionary,
  IDF,                                    !- Key Field
  Unsorted;                               !- Sort Option

Output:SQLite,
  SimpleAndTabular;                       !- Option Type

LifeCycleCost:NonrecurringCost,
  Default Cost,                           !- Name
  Construction,                           !- Category
  0,                                      !- Cost
  ServicePeriod;                          !- Start of Costs

Output:Meter,
  ELECTRICITY:TOTAL,                      !- Key Name
  runperiod;                              !- Reporting Frequency

Output:Meter,
  ELECTRICITY:TOTAL,                      !- Key Name
  hourly;                                 !- Reporting Frequency

Output:Meter,
  ELECTRICITY:NET,                        !- Key Name
  runperiod;                              !- Reporting Frequency

Output:Meter,
  ELECTRICITY:NET,                        !- Key Name
  hourly;                                 !- Reporting Frequency

Output:Variable,
  AIR SOURCE HEAT PUMP HTG COIL,          !- Key Value
  Heating Coil Electricity Energy,        !- Variable Name
  runperiod;                              !- Reporting Frequency

Output:Variable,
  AIR SOURCE HEAT PUMP HTG COIL,          !- Key Value
  Heating Coil Electricity Energy,        !- Variable Name
  hourly;                                 !- Reporting Frequency

Output:Variable,
  AIR SOURCE HEAT PUMP HTG COIL,          !- Key Value
  Heating Coil Crankcase Heater Electricity Energy, !- Variable Name
  runperiod;                              !- Reporting Frequency

Output:Variable,
  AIR SOURCE HEAT PUMP HTG COIL,          !- Key Value
  Heating Coil Crankcase Heater Electricity Energy, !- Variable Name
  hourly;                                 !- Reporting Frequency

Output:Variable,
  AIR SOURCE HEAT PUMP HTG COIL,          !- Key Value
  Heating Coil Defrost Electricity Energy, !- Variable Name
  runperiod;                              !- Reporting Frequency

Output:Variable,
  AIR SOURCE HEAT PUMP HTG COIL,          !- Key Value
  Heating Coil Defrost Electricity Energy, !- Variable Name
  hourly;                                 !- Reporting Frequency

Output:Variable,
  EMS,                                    !- Key Value
  air source heat pump supply fan disaggregate htg primary, !- Variable Name
  runperiod;                              !- Reporting Frequency

Output:Variable,
  EMS,                                    !- Key Value
  air source heat pump supply fan disaggregate htg primary, !- Variable Name
  hourly;                                 !- Reporting Frequency

Output:Variable,
  AIR SOURCE HEAT PUMP BACKUP HTG COIL,   !- Key Value
  Heating Coil Electricity Energy,        !- Variable Name
  runperiod;                              !- Reporting Frequency

Output:Variable,
  AIR SOURCE HEAT PUMP BACKUP HTG COIL,   !- Key Value
  Heating Coil Electricity Energy,        !- Variable Name
  hourly;                                 !- Reporting Frequency

Output:Variable,
  EMS,                                    !- Key Value
  air source heat pump supply fan disaggregate htg backup, !- Variable Name
  runperiod;                              !- Reporting Frequency

Output:Variable,
  EMS,                                    !- Key Value
  air source heat pump supply fan disaggregate htg backup, !- Variable Name
  hourly;                                 !- Reporting Frequency

Output:Variable,
  AIR SOURCE HEAT PUMP CLG COIL,          !- Key Value
  Cooling Coil Electricity Energy,        !- Variable Name
  runperiod;                              !- Reporting Frequency

Output:Variable,
  AIR SOURCE HEAT PUMP CLG COIL,          !- Key Value
  Cooling Coil Electricity Energy,        !- Variable Name
  hourly;                                 !- Reporting Frequency

Output:Variable,
  EMS,                                    !- Key Value
  air source heat pump supply fan disaggregate clg, !- Variable Name
  runperiod;                              !- Reporting Frequency

Output:Variable,
  EMS,                                    !- Key Value
  air source heat pump supply fan disaggregate clg, !- Variable Name
  hourly;                                 !- Reporting Frequency

Output:Variable,
  WATER HEATER FAN,                       !- Key Value
  Fan Electricity Energy,                 !- Variable Name
  runperiod;                              !- Reporting Frequency

Output:Variable,
  WATER HEATER FAN,                       !- Key Value
  Fan Electricity Energy,                 !- Variable Name
  hourly;                                 !- Reporting Frequency

Output:Variable,
  WATER HEATER COIL,                      !- Key Value
  Cooling Coil Water Heating Electricity Energy, !- Variable Name
  runperiod;                              !- Reporting Frequency

Output:Variable,
  WATER HEATER COIL,                      !- Key Value
  Cooling Coil Water Heating Electricity Energy, !- Variable Name
  hourly;                                 !- Reporting Frequency

Output:Variable,
  WATER HEATER TANK,                      !- Key Value
  Water Heater Electricity Energy,        !- Variable Name
  runperiod;                              !- Reporting Frequency

Output:Variable,
  WATER HEATER TANK,                      !- Key Value
  Water Heater Electricity Energy,        !- Variable Name
  hourly;                                 !- Reporting Frequency

Output:Variable,
  WATER HEATER TANK,                      !- Key Value
  Water Heater Off Cycle Parasitic Electricity Energy, !- Variable Name
  runperiod;                              !- Reporting Frequency

Output:Variable,
  WATER HEATER TANK,                      !- Key Value
  Water Heater Off Cycle Parasitic Electricity Energy, !- Variable Name
  hourly;                                 !- Reporting Frequency

Output:Variable,
  WATER HEATER TANK,                      !- Key Value
  Water Heater On Cycle Parasitic Electricity Energy, !- Variable Name
  runperiod;                              !- Reporting Frequency

Output:Variable,
  WATER HEATER TANK,                      !- Key Value
  Water Heater On Cycle Parasitic Electricity Energy, !- Variable Name
  hourly;                                 !- Reporting Frequency

Output:Meter,
  water heater energy adjustment1:InteriorEquipment:Electricity:Zone:GARAGE, !- Key Name
  runperiod;                              !- Reporting Frequency

Output:Meter,
  water heater energy adjustment1:InteriorEquipment:Electricity:Zone:GARAGE, !- Key Name
  hourly;                                 !- Reporting Frequency

Output:Meter,
  interior lighting:InteriorLights:Electricity, !- Key Name
  runperiod;                              !- Reporting Frequency

Output:Meter,
  interior lighting:InteriorLights:Electricity, !- Key Name
  hourly;                                 !- Reporting Frequency

Output:Meter,
  garage lighting:InteriorLights:Electricity, !- Key Name
  runperiod;                              !- Reporting Frequency

Output:Meter,
  garage lighting:InteriorLights:Electricity, !- Key Name
  hourly;                                 !- Reporting Frequency

Output:Meter,
  exterior lighting:ExteriorLights:Electricity, !- Key Name
  runperiod;                              !- Reporting Frequency

Output:Meter,
  exterior lighting:ExteriorLights:Electricity, !- Key Name
  hourly;                                 !- Reporting Frequency

Output:Meter,
  mech vent:InteriorEquipment:Electricity:Zone:CONDITIONED SPACE, !- Key Name
  runperiod;                              !- Reporting Frequency

Output:Meter,
  mech vent:InteriorEquipment:Electricity:Zone:CONDITIONED SPACE, !- Key Name
  hourly;                                 !- Reporting Frequency

Output:Meter,
  whole house fan:InteriorEquipment:Electricity:Zone:CONDITIONED SPACE, !- Key Name
  runperiod;                              !- Reporting Frequency

Output:Meter,
  whole house fan:InteriorEquipment:Electricity:Zone:CONDITIONED SPACE, !- Key Name
  hourly;                                 !- Reporting Frequency

Output:Meter,
  fridge:InteriorEquipment:Electricity:Zone:CONDITIONED SPACE, !- Key Name
  runperiod;                              !- Reporting Frequency

Output:Meter,
  fridge:InteriorEquipment:Electricity:Zone:CONDITIONED SPACE, !- Key Name
  hourly;                                 !- Reporting Frequency

Output:Meter,
  freezer:InteriorEquipment:Electricity:Zone:GARAGE, !- Key Name
  runperiod;                              !- Reporting Frequency

Output:Meter,
  freezer:InteriorEquipment:Electricity:Zone:GARAGE, !- Key Name
  hourly;                                 !- Reporting Frequency

Output:Meter,
  clothes washer:InteriorEquipment:Electricity:Zone:CONDITIONED SPACE, !- Key Name
  runperiod;                              !- Reporting Frequency

Output:Meter,
  clothes washer:InteriorEquipment:Electricity:Zone:CONDITIONED SPACE, !- Key Name
  hourly;                                 !- Reporting Frequency

Output:Meter,
  cooking range:InteriorEquipment:Electricity:Zone:CONDITIONED SPACE, !- Key Name
  runperiod;                              !- Reporting Frequency

Output:Meter,
  cooking range:InteriorEquipment:Electricity:Zone:CONDITIONED SPACE, !- Key Name
  hourly;                                 !- Reporting Frequency

Output:Meter,
  misc tv:InteriorEquipment:Electricity:Zone:CONDITIONED SPACE, !- Key Name
  runperiod;                              !- Reporting Frequency

Output:Meter,
  misc tv:InteriorEquipment:Electricity:Zone:CONDITIONED SPACE, !- Key Name
  hourly;                                 !- Reporting Frequency

Output:Meter,
  misc plug loads:InteriorEquipment:Electricity:Zone:CONDITIONED SPACE, !- Key Name
  runperiod;                              !- Reporting Frequency

Output:Meter,
  misc plug loads:InteriorEquipment:Electricity:Zone:CONDITIONED SPACE, !- Key Name
  hourly;                                 !- Reporting Frequency

Output:Variable,
  CLOTHES WASHER,                         !- Key Value
  Water Use Equipment Hot Water Volume,   !- Variable Name
  runperiod;                              !- Reporting Frequency

Output:Variable,
  CLOTHES WASHER,                         !- Key Value
  Water Use Equipment Hot Water Volume,   !- Variable Name
  hourly;                                 !- Reporting Frequency

Output:Variable,
  DHW FIXTURES,                           !- Key Value
  Water Use Equipment Hot Water Volume,   !- Variable Name
  runperiod;                              !- Reporting Frequency

Output:Variable,
  DHW FIXTURES,                           !- Key Value
  Water Use Equipment Hot Water Volume,   !- Variable Name
  hourly;                                 !- Reporting Frequency

Output:Variable,
  DHW DISTRIBUTION WASTE,                 !- Key Value
  Water Use Equipment Hot Water Volume,   !- Variable Name
  runperiod;                              !- Reporting Frequency

Output:Variable,
  DHW DISTRIBUTION WASTE,                 !- Key Value
  Water Use Equipment Hot Water Volume,   !- Variable Name
  hourly;                                 !- Reporting Frequency

Output:Table:Monthly,
  Peak Electricity Total,                 !- Name
  2,                                      !- Digits After Decimal
  Electricity:Total,                      !- Variable or Meter Name 1
  Maximum;                                !- Aggregation Type for Variable or Meter 1

Output:Table:Monthly,
  Peak Electricity Net,                   !- Name
  2,                                      !- Digits After Decimal
  Electricity:Net,                        !- Variable or Meter Name 1
  Maximum;                                !- Aggregation Type for Variable or Meter 1

EnergyManagementSystem:OutputVariable,
  loads_htg_tot_peakload_outvar,          !- Name
  loads_htg_tot,                          !- EMS Variable Name
  Summed,                                 !- Type of Data in Variable
  ZoneTimestep,                           !- Update Frequency
  total_loads_program,                    !- EMS Program or Subroutine Name
  J;                                      !- Units

Output:Table:Monthly,
  Peak Heating Load,                      !- Name
  2,                                      !- Digits After Decimal
  loads_htg_tot_peakload_outvar,          !- Variable or Meter Name 1
  Maximum;                                !- Aggregation Type for Variable or Meter 1

EnergyManagementSystem:OutputVariable,
  loads_clg_tot_peakload_outvar,          !- Name
  loads_clg_tot,                          !- EMS Variable Name
  Summed,                                 !- Type of Data in Variable
  ZoneTimestep,                           !- Update Frequency
  total_loads_program,                    !- EMS Program or Subroutine Name
  J;                                      !- Units

Output:Table:Monthly,
  Peak Cooling Load,                      !- Name
  2,                                      !- Digits After Decimal
  loads_clg_tot_peakload_outvar,          !- Variable or Meter Name 1
  Maximum;                                !- Aggregation Type for Variable or Meter 1

EnergyManagementSystem:OutputVariable,
  htg_unmet_hours_annual_outvar,          !- Name
  htg_unmet_hours,                        !- EMS Variable Name
  Summed,                                 !- Type of Data in Variable
  ZoneTimestep,                           !- Update Frequency
  unmet_hours_program,                    !- EMS Program or Subroutine Name
  hr;                                     !- Units

Output:Variable,
  *,                                      !- Key Value
  htg_unmet_hours_annual_outvar,          !- Variable Name
  runperiod;                              !- Reporting Frequency

EnergyManagementSystem:OutputVariable,
  htg_unmet_hours_timeseries_outvar,      !- Name
  htg_unmet_hours,                        !- EMS Variable Name
  Summed,                                 !- Type of Data in Variable
  ZoneTimestep,                           !- Update Frequency
  unmet_hours_program,                    !- EMS Program or Subroutine Name
  hr;                                     !- Units

Output:Variable,
  *,                                      !- Key Value
  htg_unmet_hours_timeseries_outvar,      !- Variable Name
  hourly;                                 !- Reporting Frequency

EnergyManagementSystem:OutputVariable,
  clg_unmet_hours_annual_outvar,          !- Name
  clg_unmet_hours,                        !- EMS Variable Name
  Summed,                                 !- Type of Data in Variable
  ZoneTimestep,                           !- Update Frequency
  unmet_hours_program,                    !- EMS Program or Subroutine Name
  hr;                                     !- Units

Output:Variable,
  *,                                      !- Key Value
  clg_unmet_hours_annual_outvar,          !- Variable Name
  runperiod;                              !- Reporting Frequency

EnergyManagementSystem:OutputVariable,
  clg_unmet_hours_timeseries_outvar,      !- Name
  clg_unmet_hours,                        !- EMS Variable Name
  Summed,                                 !- Type of Data in Variable
  ZoneTimestep,                           !- Update Frequency
  unmet_hours_program,                    !- EMS Program or Subroutine Name
  hr;                                     !- Units

Output:Variable,
  *,                                      !- Key Value
  clg_unmet_hours_timeseries_outvar,      !- Variable Name
  hourly;                                 !- Reporting Frequency

EnergyManagementSystem:OutputVariable,
  loads_htg_roofs_annual_outvar,          !- Name
  loads_htg_roofs,                        !- EMS Variable Name
  Summed,                                 !- Type of Data in Variable
  ZoneTimestep,                           !- Update Frequency
  component_loads_program,                !- EMS Program or Subroutine Name
  J;                                      !- Units

Output:Variable,
  *,                                      !- Key Value
  loads_htg_roofs_annual_outvar,          !- Variable Name
  runperiod;                              !- Reporting Frequency

EnergyManagementSystem:OutputVariable,
  loads_htg_roofs_timeseries_outvar,      !- Name
  loads_htg_roofs,                        !- EMS Variable Name
  Summed,                                 !- Type of Data in Variable
  ZoneTimestep,                           !- Update Frequency
  component_loads_program,                !- EMS Program or Subroutine Name
  J;                                      !- Units

Output:Variable,
  *,                                      !- Key Value
  loads_htg_roofs_timeseries_outvar,      !- Variable Name
  hourly;                                 !- Reporting Frequency

EnergyManagementSystem:OutputVariable,
  loads_htg_ceilings_annual_outvar,       !- Name
  loads_htg_ceilings,                     !- EMS Variable Name
  Summed,                                 !- Type of Data in Variable
  ZoneTimestep,                           !- Update Frequency
  component_loads_program,                !- EMS Program or Subroutine Name
  J;                                      !- Units

Output:Variable,
  *,                                      !- Key Value
  loads_htg_ceilings_annual_outvar,       !- Variable Name
  runperiod;                              !- Reporting Frequency

EnergyManagementSystem:OutputVariable,
  loads_htg_ceilings_timeseries_outvar,   !- Name
  loads_htg_ceilings,                     !- EMS Variable Name
  Summed,                                 !- Type of Data in Variable
  ZoneTimestep,                           !- Update Frequency
  component_loads_program,                !- EMS Program or Subroutine Name
  J;                                      !- Units

Output:Variable,
  *,                                      !- Key Value
  loads_htg_ceilings_timeseries_outvar,   !- Variable Name
  hourly;                                 !- Reporting Frequency

EnergyManagementSystem:OutputVariable,
  loads_htg_walls_annual_outvar,          !- Name
  loads_htg_walls,                        !- EMS Variable Name
  Summed,                                 !- Type of Data in Variable
  ZoneTimestep,                           !- Update Frequency
  component_loads_program,                !- EMS Program or Subroutine Name
  J;                                      !- Units

Output:Variable,
  *,                                      !- Key Value
  loads_htg_walls_annual_outvar,          !- Variable Name
  runperiod;                              !- Reporting Frequency

EnergyManagementSystem:OutputVariable,
  loads_htg_walls_timeseries_outvar,      !- Name
  loads_htg_walls,                        !- EMS Variable Name
  Summed,                                 !- Type of Data in Variable
  ZoneTimestep,                           !- Update Frequency
  component_loads_program,                !- EMS Program or Subroutine Name
  J;                                      !- Units

Output:Variable,
  *,                                      !- Key Value
  loads_htg_walls_timeseries_outvar,      !- Variable Name
  hourly;                                 !- Reporting Frequency

EnergyManagementSystem:OutputVariable,
  loads_htg_rim_joists_annual_outvar,     !- Name
  loads_htg_rim_joists,                   !- EMS Variable Name
  Summed,                                 !- Type of Data in Variable
  ZoneTimestep,                           !- Update Frequency
  component_loads_program,                !- EMS Program or Subroutine Name
  J;                                      !- Units

Output:Variable,
  *,                                      !- Key Value
  loads_htg_rim_joists_annual_outvar,     !- Variable Name
  runperiod;                              !- Reporting Frequency

EnergyManagementSystem:OutputVariable,
  loads_htg_rim_joists_timeseries_outvar, !- Name
  loads_htg_rim_joists,                   !- EMS Variable Name
  Summed,                                 !- Type of Data in Variable
  ZoneTimestep,                           !- Update Frequency
  component_loads_program,                !- EMS Program or Subroutine Name
  J;                                      !- Units

Output:Variable,
  *,                                      !- Key Value
  loads_htg_rim_joists_timeseries_outvar, !- Variable Name
  hourly;                                 !- Reporting Frequency

EnergyManagementSystem:OutputVariable,
  loads_htg_foundation_walls_annual_outvar, !- Name
  loads_htg_foundation_walls,             !- EMS Variable Name
  Summed,                                 !- Type of Data in Variable
  ZoneTimestep,                           !- Update Frequency
  component_loads_program,                !- EMS Program or Subroutine Name
  J;                                      !- Units

Output:Variable,
  *,                                      !- Key Value
  loads_htg_foundation_walls_annual_outvar, !- Variable Name
  runperiod;                              !- Reporting Frequency

EnergyManagementSystem:OutputVariable,
  loads_htg_foundation_walls_timeseries_outvar, !- Name
  loads_htg_foundation_walls,             !- EMS Variable Name
  Summed,                                 !- Type of Data in Variable
  ZoneTimestep,                           !- Update Frequency
  component_loads_program,                !- EMS Program or Subroutine Name
  J;                                      !- Units

Output:Variable,
  *,                                      !- Key Value
  loads_htg_foundation_walls_timeseries_outvar, !- Variable Name
  hourly;                                 !- Reporting Frequency

EnergyManagementSystem:OutputVariable,
  loads_htg_doors_annual_outvar,          !- Name
  loads_htg_doors,                        !- EMS Variable Name
  Summed,                                 !- Type of Data in Variable
  ZoneTimestep,                           !- Update Frequency
  component_loads_program,                !- EMS Program or Subroutine Name
  J;                                      !- Units

Output:Variable,
  *,                                      !- Key Value
  loads_htg_doors_annual_outvar,          !- Variable Name
  runperiod;                              !- Reporting Frequency

EnergyManagementSystem:OutputVariable,
  loads_htg_doors_timeseries_outvar,      !- Name
  loads_htg_doors,                        !- EMS Variable Name
  Summed,                                 !- Type of Data in Variable
  ZoneTimestep,                           !- Update Frequency
  component_loads_program,                !- EMS Program or Subroutine Name
  J;                                      !- Units

Output:Variable,
  *,                                      !- Key Value
  loads_htg_doors_timeseries_outvar,      !- Variable Name
  hourly;                                 !- Reporting Frequency

EnergyManagementSystem:OutputVariable,
  loads_htg_windows_conduction_annual_outvar, !- Name
  loads_htg_windows_conduction,           !- EMS Variable Name
  Summed,                                 !- Type of Data in Variable
  ZoneTimestep,                           !- Update Frequency
  component_loads_program,                !- EMS Program or Subroutine Name
  J;                                      !- Units

Output:Variable,
  *,                                      !- Key Value
  loads_htg_windows_conduction_annual_outvar, !- Variable Name
  runperiod;                              !- Reporting Frequency

EnergyManagementSystem:OutputVariable,
  loads_htg_windows_conduction_timeseries_outvar, !- Name
  loads_htg_windows_conduction,           !- EMS Variable Name
  Summed,                                 !- Type of Data in Variable
  ZoneTimestep,                           !- Update Frequency
  component_loads_program,                !- EMS Program or Subroutine Name
  J;                                      !- Units

Output:Variable,
  *,                                      !- Key Value
  loads_htg_windows_conduction_timeseries_outvar, !- Variable Name
  hourly;                                 !- Reporting Frequency

EnergyManagementSystem:OutputVariable,
  loads_htg_windows_solar_annual_outvar,  !- Name
  loads_htg_windows_solar,                !- EMS Variable Name
  Summed,                                 !- Type of Data in Variable
  ZoneTimestep,                           !- Update Frequency
  component_loads_program,                !- EMS Program or Subroutine Name
  J;                                      !- Units

Output:Variable,
  *,                                      !- Key Value
  loads_htg_windows_solar_annual_outvar,  !- Variable Name
  runperiod;                              !- Reporting Frequency

EnergyManagementSystem:OutputVariable,
  loads_htg_windows_solar_timeseries_outvar, !- Name
  loads_htg_windows_solar,                !- EMS Variable Name
  Summed,                                 !- Type of Data in Variable
  ZoneTimestep,                           !- Update Frequency
  component_loads_program,                !- EMS Program or Subroutine Name
  J;                                      !- Units

Output:Variable,
  *,                                      !- Key Value
  loads_htg_windows_solar_timeseries_outvar, !- Variable Name
  hourly;                                 !- Reporting Frequency

EnergyManagementSystem:OutputVariable,
  loads_htg_skylights_conduction_annual_outvar, !- Name
  loads_htg_skylights_conduction,         !- EMS Variable Name
  Summed,                                 !- Type of Data in Variable
  ZoneTimestep,                           !- Update Frequency
  component_loads_program,                !- EMS Program or Subroutine Name
  J;                                      !- Units

Output:Variable,
  *,                                      !- Key Value
  loads_htg_skylights_conduction_annual_outvar, !- Variable Name
  runperiod;                              !- Reporting Frequency

EnergyManagementSystem:OutputVariable,
  loads_htg_skylights_conduction_timeseries_outvar, !- Name
  loads_htg_skylights_conduction,         !- EMS Variable Name
  Summed,                                 !- Type of Data in Variable
  ZoneTimestep,                           !- Update Frequency
  component_loads_program,                !- EMS Program or Subroutine Name
  J;                                      !- Units

Output:Variable,
  *,                                      !- Key Value
  loads_htg_skylights_conduction_timeseries_outvar, !- Variable Name
  hourly;                                 !- Reporting Frequency

EnergyManagementSystem:OutputVariable,
  loads_htg_skylights_solar_annual_outvar, !- Name
  loads_htg_skylights_solar,              !- EMS Variable Name
  Summed,                                 !- Type of Data in Variable
  ZoneTimestep,                           !- Update Frequency
  component_loads_program,                !- EMS Program or Subroutine Name
  J;                                      !- Units

Output:Variable,
  *,                                      !- Key Value
  loads_htg_skylights_solar_annual_outvar, !- Variable Name
  runperiod;                              !- Reporting Frequency

EnergyManagementSystem:OutputVariable,
  loads_htg_skylights_solar_timeseries_outvar, !- Name
  loads_htg_skylights_solar,              !- EMS Variable Name
  Summed,                                 !- Type of Data in Variable
  ZoneTimestep,                           !- Update Frequency
  component_loads_program,                !- EMS Program or Subroutine Name
  J;                                      !- Units

Output:Variable,
  *,                                      !- Key Value
  loads_htg_skylights_solar_timeseries_outvar, !- Variable Name
  hourly;                                 !- Reporting Frequency

EnergyManagementSystem:OutputVariable,
  loads_htg_floors_annual_outvar,         !- Name
  loads_htg_floors,                       !- EMS Variable Name
  Summed,                                 !- Type of Data in Variable
  ZoneTimestep,                           !- Update Frequency
  component_loads_program,                !- EMS Program or Subroutine Name
  J;                                      !- Units

Output:Variable,
  *,                                      !- Key Value
  loads_htg_floors_annual_outvar,         !- Variable Name
  runperiod;                              !- Reporting Frequency

EnergyManagementSystem:OutputVariable,
  loads_htg_floors_timeseries_outvar,     !- Name
  loads_htg_floors,                       !- EMS Variable Name
  Summed,                                 !- Type of Data in Variable
  ZoneTimestep,                           !- Update Frequency
  component_loads_program,                !- EMS Program or Subroutine Name
  J;                                      !- Units

Output:Variable,
  *,                                      !- Key Value
  loads_htg_floors_timeseries_outvar,     !- Variable Name
  hourly;                                 !- Reporting Frequency

EnergyManagementSystem:OutputVariable,
  loads_htg_slabs_annual_outvar,          !- Name
  loads_htg_slabs,                        !- EMS Variable Name
  Summed,                                 !- Type of Data in Variable
  ZoneTimestep,                           !- Update Frequency
  component_loads_program,                !- EMS Program or Subroutine Name
  J;                                      !- Units

Output:Variable,
  *,                                      !- Key Value
  loads_htg_slabs_annual_outvar,          !- Variable Name
  runperiod;                              !- Reporting Frequency

EnergyManagementSystem:OutputVariable,
  loads_htg_slabs_timeseries_outvar,      !- Name
  loads_htg_slabs,                        !- EMS Variable Name
  Summed,                                 !- Type of Data in Variable
  ZoneTimestep,                           !- Update Frequency
  component_loads_program,                !- EMS Program or Subroutine Name
  J;                                      !- Units

Output:Variable,
  *,                                      !- Key Value
  loads_htg_slabs_timeseries_outvar,      !- Variable Name
  hourly;                                 !- Reporting Frequency

EnergyManagementSystem:OutputVariable,
  loads_htg_internal_mass_annual_outvar,  !- Name
  loads_htg_internal_mass,                !- EMS Variable Name
  Summed,                                 !- Type of Data in Variable
  ZoneTimestep,                           !- Update Frequency
  component_loads_program,                !- EMS Program or Subroutine Name
  J;                                      !- Units

Output:Variable,
  *,                                      !- Key Value
  loads_htg_internal_mass_annual_outvar,  !- Variable Name
  runperiod;                              !- Reporting Frequency

EnergyManagementSystem:OutputVariable,
  loads_htg_internal_mass_timeseries_outvar, !- Name
  loads_htg_internal_mass,                !- EMS Variable Name
  Summed,                                 !- Type of Data in Variable
  ZoneTimestep,                           !- Update Frequency
  component_loads_program,                !- EMS Program or Subroutine Name
  J;                                      !- Units

Output:Variable,
  *,                                      !- Key Value
  loads_htg_internal_mass_timeseries_outvar, !- Variable Name
  hourly;                                 !- Reporting Frequency

EnergyManagementSystem:OutputVariable,
  loads_htg_infil_annual_outvar,          !- Name
  loads_htg_infil,                        !- EMS Variable Name
  Summed,                                 !- Type of Data in Variable
  ZoneTimestep,                           !- Update Frequency
  component_loads_program,                !- EMS Program or Subroutine Name
  J;                                      !- Units

Output:Variable,
  *,                                      !- Key Value
  loads_htg_infil_annual_outvar,          !- Variable Name
  runperiod;                              !- Reporting Frequency

EnergyManagementSystem:OutputVariable,
  loads_htg_infil_timeseries_outvar,      !- Name
  loads_htg_infil,                        !- EMS Variable Name
  Summed,                                 !- Type of Data in Variable
  ZoneTimestep,                           !- Update Frequency
  component_loads_program,                !- EMS Program or Subroutine Name
  J;                                      !- Units

Output:Variable,
  *,                                      !- Key Value
  loads_htg_infil_timeseries_outvar,      !- Variable Name
  hourly;                                 !- Reporting Frequency

EnergyManagementSystem:OutputVariable,
  loads_htg_natvent_annual_outvar,        !- Name
  loads_htg_natvent,                      !- EMS Variable Name
  Summed,                                 !- Type of Data in Variable
  ZoneTimestep,                           !- Update Frequency
  component_loads_program,                !- EMS Program or Subroutine Name
  J;                                      !- Units

Output:Variable,
  *,                                      !- Key Value
  loads_htg_natvent_annual_outvar,        !- Variable Name
  runperiod;                              !- Reporting Frequency

EnergyManagementSystem:OutputVariable,
  loads_htg_natvent_timeseries_outvar,    !- Name
  loads_htg_natvent,                      !- EMS Variable Name
  Summed,                                 !- Type of Data in Variable
  ZoneTimestep,                           !- Update Frequency
  component_loads_program,                !- EMS Program or Subroutine Name
  J;                                      !- Units

Output:Variable,
  *,                                      !- Key Value
  loads_htg_natvent_timeseries_outvar,    !- Variable Name
  hourly;                                 !- Reporting Frequency

EnergyManagementSystem:OutputVariable,
  loads_htg_mechvent_annual_outvar,       !- Name
  loads_htg_mechvent,                     !- EMS Variable Name
  Summed,                                 !- Type of Data in Variable
  ZoneTimestep,                           !- Update Frequency
  component_loads_program,                !- EMS Program or Subroutine Name
  J;                                      !- Units

Output:Variable,
  *,                                      !- Key Value
  loads_htg_mechvent_annual_outvar,       !- Variable Name
  runperiod;                              !- Reporting Frequency

EnergyManagementSystem:OutputVariable,
  loads_htg_mechvent_timeseries_outvar,   !- Name
  loads_htg_mechvent,                     !- EMS Variable Name
  Summed,                                 !- Type of Data in Variable
  ZoneTimestep,                           !- Update Frequency
  component_loads_program,                !- EMS Program or Subroutine Name
  J;                                      !- Units

Output:Variable,
  *,                                      !- Key Value
  loads_htg_mechvent_timeseries_outvar,   !- Variable Name
  hourly;                                 !- Reporting Frequency

EnergyManagementSystem:OutputVariable,
  loads_htg_whf_annual_outvar,            !- Name
  loads_htg_whf,                          !- EMS Variable Name
  Summed,                                 !- Type of Data in Variable
  ZoneTimestep,                           !- Update Frequency
  component_loads_program,                !- EMS Program or Subroutine Name
  J;                                      !- Units

Output:Variable,
  *,                                      !- Key Value
  loads_htg_whf_annual_outvar,            !- Variable Name
  runperiod;                              !- Reporting Frequency

EnergyManagementSystem:OutputVariable,
  loads_htg_whf_timeseries_outvar,        !- Name
  loads_htg_whf,                          !- EMS Variable Name
  Summed,                                 !- Type of Data in Variable
  ZoneTimestep,                           !- Update Frequency
  component_loads_program,                !- EMS Program or Subroutine Name
  J;                                      !- Units

Output:Variable,
  *,                                      !- Key Value
  loads_htg_whf_timeseries_outvar,        !- Variable Name
  hourly;                                 !- Reporting Frequency

EnergyManagementSystem:OutputVariable,
  loads_htg_ducts_annual_outvar,          !- Name
  loads_htg_ducts,                        !- EMS Variable Name
  Summed,                                 !- Type of Data in Variable
  ZoneTimestep,                           !- Update Frequency
  component_loads_program,                !- EMS Program or Subroutine Name
  J;                                      !- Units

Output:Variable,
  *,                                      !- Key Value
  loads_htg_ducts_annual_outvar,          !- Variable Name
  runperiod;                              !- Reporting Frequency

EnergyManagementSystem:OutputVariable,
  loads_htg_ducts_timeseries_outvar,      !- Name
  loads_htg_ducts,                        !- EMS Variable Name
  Summed,                                 !- Type of Data in Variable
  ZoneTimestep,                           !- Update Frequency
  component_loads_program,                !- EMS Program or Subroutine Name
  J;                                      !- Units

Output:Variable,
  *,                                      !- Key Value
  loads_htg_ducts_timeseries_outvar,      !- Variable Name
  hourly;                                 !- Reporting Frequency

EnergyManagementSystem:OutputVariable,
  loads_htg_intgains_annual_outvar,       !- Name
  loads_htg_intgains,                     !- EMS Variable Name
  Summed,                                 !- Type of Data in Variable
  ZoneTimestep,                           !- Update Frequency
  component_loads_program,                !- EMS Program or Subroutine Name
  J;                                      !- Units

Output:Variable,
  *,                                      !- Key Value
  loads_htg_intgains_annual_outvar,       !- Variable Name
  runperiod;                              !- Reporting Frequency

EnergyManagementSystem:OutputVariable,
  loads_htg_intgains_timeseries_outvar,   !- Name
  loads_htg_intgains,                     !- EMS Variable Name
  Summed,                                 !- Type of Data in Variable
  ZoneTimestep,                           !- Update Frequency
  component_loads_program,                !- EMS Program or Subroutine Name
  J;                                      !- Units

Output:Variable,
  *,                                      !- Key Value
  loads_htg_intgains_timeseries_outvar,   !- Variable Name
  hourly;                                 !- Reporting Frequency

EnergyManagementSystem:OutputVariable,
  loads_htg_lighting_annual_outvar,       !- Name
  loads_htg_lighting,                     !- EMS Variable Name
  Summed,                                 !- Type of Data in Variable
  ZoneTimestep,                           !- Update Frequency
  component_loads_program,                !- EMS Program or Subroutine Name
  J;                                      !- Units

Output:Variable,
  *,                                      !- Key Value
  loads_htg_lighting_annual_outvar,       !- Variable Name
  runperiod;                              !- Reporting Frequency

EnergyManagementSystem:OutputVariable,
  loads_htg_lighting_timeseries_outvar,   !- Name
  loads_htg_lighting,                     !- EMS Variable Name
  Summed,                                 !- Type of Data in Variable
  ZoneTimestep,                           !- Update Frequency
  component_loads_program,                !- EMS Program or Subroutine Name
  J;                                      !- Units

Output:Variable,
  *,                                      !- Key Value
  loads_htg_lighting_timeseries_outvar,   !- Variable Name
  hourly;                                 !- Reporting Frequency

EnergyManagementSystem:OutputVariable,
  loads_clg_roofs_annual_outvar,          !- Name
  loads_clg_roofs,                        !- EMS Variable Name
  Summed,                                 !- Type of Data in Variable
  ZoneTimestep,                           !- Update Frequency
  component_loads_program,                !- EMS Program or Subroutine Name
  J;                                      !- Units

Output:Variable,
  *,                                      !- Key Value
  loads_clg_roofs_annual_outvar,          !- Variable Name
  runperiod;                              !- Reporting Frequency

EnergyManagementSystem:OutputVariable,
  loads_clg_roofs_timeseries_outvar,      !- Name
  loads_clg_roofs,                        !- EMS Variable Name
  Summed,                                 !- Type of Data in Variable
  ZoneTimestep,                           !- Update Frequency
  component_loads_program,                !- EMS Program or Subroutine Name
  J;                                      !- Units

Output:Variable,
  *,                                      !- Key Value
  loads_clg_roofs_timeseries_outvar,      !- Variable Name
  hourly;                                 !- Reporting Frequency

EnergyManagementSystem:OutputVariable,
  loads_clg_ceilings_annual_outvar,       !- Name
  loads_clg_ceilings,                     !- EMS Variable Name
  Summed,                                 !- Type of Data in Variable
  ZoneTimestep,                           !- Update Frequency
  component_loads_program,                !- EMS Program or Subroutine Name
  J;                                      !- Units

Output:Variable,
  *,                                      !- Key Value
  loads_clg_ceilings_annual_outvar,       !- Variable Name
  runperiod;                              !- Reporting Frequency

EnergyManagementSystem:OutputVariable,
  loads_clg_ceilings_timeseries_outvar,   !- Name
  loads_clg_ceilings,                     !- EMS Variable Name
  Summed,                                 !- Type of Data in Variable
  ZoneTimestep,                           !- Update Frequency
  component_loads_program,                !- EMS Program or Subroutine Name
  J;                                      !- Units

Output:Variable,
  *,                                      !- Key Value
  loads_clg_ceilings_timeseries_outvar,   !- Variable Name
  hourly;                                 !- Reporting Frequency

EnergyManagementSystem:OutputVariable,
  loads_clg_walls_annual_outvar,          !- Name
  loads_clg_walls,                        !- EMS Variable Name
  Summed,                                 !- Type of Data in Variable
  ZoneTimestep,                           !- Update Frequency
  component_loads_program,                !- EMS Program or Subroutine Name
  J;                                      !- Units

Output:Variable,
  *,                                      !- Key Value
  loads_clg_walls_annual_outvar,          !- Variable Name
  runperiod;                              !- Reporting Frequency

EnergyManagementSystem:OutputVariable,
  loads_clg_walls_timeseries_outvar,      !- Name
  loads_clg_walls,                        !- EMS Variable Name
  Summed,                                 !- Type of Data in Variable
  ZoneTimestep,                           !- Update Frequency
  component_loads_program,                !- EMS Program or Subroutine Name
  J;                                      !- Units

Output:Variable,
  *,                                      !- Key Value
  loads_clg_walls_timeseries_outvar,      !- Variable Name
  hourly;                                 !- Reporting Frequency

EnergyManagementSystem:OutputVariable,
  loads_clg_rim_joists_annual_outvar,     !- Name
  loads_clg_rim_joists,                   !- EMS Variable Name
  Summed,                                 !- Type of Data in Variable
  ZoneTimestep,                           !- Update Frequency
  component_loads_program,                !- EMS Program or Subroutine Name
  J;                                      !- Units

Output:Variable,
  *,                                      !- Key Value
  loads_clg_rim_joists_annual_outvar,     !- Variable Name
  runperiod;                              !- Reporting Frequency

EnergyManagementSystem:OutputVariable,
  loads_clg_rim_joists_timeseries_outvar, !- Name
  loads_clg_rim_joists,                   !- EMS Variable Name
  Summed,                                 !- Type of Data in Variable
  ZoneTimestep,                           !- Update Frequency
  component_loads_program,                !- EMS Program or Subroutine Name
  J;                                      !- Units

Output:Variable,
  *,                                      !- Key Value
  loads_clg_rim_joists_timeseries_outvar, !- Variable Name
  hourly;                                 !- Reporting Frequency

EnergyManagementSystem:OutputVariable,
  loads_clg_foundation_walls_annual_outvar, !- Name
  loads_clg_foundation_walls,             !- EMS Variable Name
  Summed,                                 !- Type of Data in Variable
  ZoneTimestep,                           !- Update Frequency
  component_loads_program,                !- EMS Program or Subroutine Name
  J;                                      !- Units

Output:Variable,
  *,                                      !- Key Value
  loads_clg_foundation_walls_annual_outvar, !- Variable Name
  runperiod;                              !- Reporting Frequency

EnergyManagementSystem:OutputVariable,
  loads_clg_foundation_walls_timeseries_outvar, !- Name
  loads_clg_foundation_walls,             !- EMS Variable Name
  Summed,                                 !- Type of Data in Variable
  ZoneTimestep,                           !- Update Frequency
  component_loads_program,                !- EMS Program or Subroutine Name
  J;                                      !- Units

Output:Variable,
  *,                                      !- Key Value
  loads_clg_foundation_walls_timeseries_outvar, !- Variable Name
  hourly;                                 !- Reporting Frequency

EnergyManagementSystem:OutputVariable,
  loads_clg_doors_annual_outvar,          !- Name
  loads_clg_doors,                        !- EMS Variable Name
  Summed,                                 !- Type of Data in Variable
  ZoneTimestep,                           !- Update Frequency
  component_loads_program,                !- EMS Program or Subroutine Name
  J;                                      !- Units

Output:Variable,
  *,                                      !- Key Value
  loads_clg_doors_annual_outvar,          !- Variable Name
  runperiod;                              !- Reporting Frequency

EnergyManagementSystem:OutputVariable,
  loads_clg_doors_timeseries_outvar,      !- Name
  loads_clg_doors,                        !- EMS Variable Name
  Summed,                                 !- Type of Data in Variable
  ZoneTimestep,                           !- Update Frequency
  component_loads_program,                !- EMS Program or Subroutine Name
  J;                                      !- Units

Output:Variable,
  *,                                      !- Key Value
  loads_clg_doors_timeseries_outvar,      !- Variable Name
  hourly;                                 !- Reporting Frequency

EnergyManagementSystem:OutputVariable,
  loads_clg_windows_conduction_annual_outvar, !- Name
  loads_clg_windows_conduction,           !- EMS Variable Name
  Summed,                                 !- Type of Data in Variable
  ZoneTimestep,                           !- Update Frequency
  component_loads_program,                !- EMS Program or Subroutine Name
  J;                                      !- Units

Output:Variable,
  *,                                      !- Key Value
  loads_clg_windows_conduction_annual_outvar, !- Variable Name
  runperiod;                              !- Reporting Frequency

EnergyManagementSystem:OutputVariable,
  loads_clg_windows_conduction_timeseries_outvar, !- Name
  loads_clg_windows_conduction,           !- EMS Variable Name
  Summed,                                 !- Type of Data in Variable
  ZoneTimestep,                           !- Update Frequency
  component_loads_program,                !- EMS Program or Subroutine Name
  J;                                      !- Units

Output:Variable,
  *,                                      !- Key Value
  loads_clg_windows_conduction_timeseries_outvar, !- Variable Name
  hourly;                                 !- Reporting Frequency

EnergyManagementSystem:OutputVariable,
  loads_clg_windows_solar_annual_outvar,  !- Name
  loads_clg_windows_solar,                !- EMS Variable Name
  Summed,                                 !- Type of Data in Variable
  ZoneTimestep,                           !- Update Frequency
  component_loads_program,                !- EMS Program or Subroutine Name
  J;                                      !- Units

Output:Variable,
  *,                                      !- Key Value
  loads_clg_windows_solar_annual_outvar,  !- Variable Name
  runperiod;                              !- Reporting Frequency

EnergyManagementSystem:OutputVariable,
  loads_clg_windows_solar_timeseries_outvar, !- Name
  loads_clg_windows_solar,                !- EMS Variable Name
  Summed,                                 !- Type of Data in Variable
  ZoneTimestep,                           !- Update Frequency
  component_loads_program,                !- EMS Program or Subroutine Name
  J;                                      !- Units

Output:Variable,
  *,                                      !- Key Value
  loads_clg_windows_solar_timeseries_outvar, !- Variable Name
  hourly;                                 !- Reporting Frequency

EnergyManagementSystem:OutputVariable,
  loads_clg_skylights_conduction_annual_outvar, !- Name
  loads_clg_skylights_conduction,         !- EMS Variable Name
  Summed,                                 !- Type of Data in Variable
  ZoneTimestep,                           !- Update Frequency
  component_loads_program,                !- EMS Program or Subroutine Name
  J;                                      !- Units

Output:Variable,
  *,                                      !- Key Value
  loads_clg_skylights_conduction_annual_outvar, !- Variable Name
  runperiod;                              !- Reporting Frequency

EnergyManagementSystem:OutputVariable,
  loads_clg_skylights_conduction_timeseries_outvar, !- Name
  loads_clg_skylights_conduction,         !- EMS Variable Name
  Summed,                                 !- Type of Data in Variable
  ZoneTimestep,                           !- Update Frequency
  component_loads_program,                !- EMS Program or Subroutine Name
  J;                                      !- Units

Output:Variable,
  *,                                      !- Key Value
  loads_clg_skylights_conduction_timeseries_outvar, !- Variable Name
  hourly;                                 !- Reporting Frequency

EnergyManagementSystem:OutputVariable,
  loads_clg_skylights_solar_annual_outvar, !- Name
  loads_clg_skylights_solar,              !- EMS Variable Name
  Summed,                                 !- Type of Data in Variable
  ZoneTimestep,                           !- Update Frequency
  component_loads_program,                !- EMS Program or Subroutine Name
  J;                                      !- Units

Output:Variable,
  *,                                      !- Key Value
  loads_clg_skylights_solar_annual_outvar, !- Variable Name
  runperiod;                              !- Reporting Frequency

EnergyManagementSystem:OutputVariable,
  loads_clg_skylights_solar_timeseries_outvar, !- Name
  loads_clg_skylights_solar,              !- EMS Variable Name
  Summed,                                 !- Type of Data in Variable
  ZoneTimestep,                           !- Update Frequency
  component_loads_program,                !- EMS Program or Subroutine Name
  J;                                      !- Units

Output:Variable,
  *,                                      !- Key Value
  loads_clg_skylights_solar_timeseries_outvar, !- Variable Name
  hourly;                                 !- Reporting Frequency

EnergyManagementSystem:OutputVariable,
  loads_clg_floors_annual_outvar,         !- Name
  loads_clg_floors,                       !- EMS Variable Name
  Summed,                                 !- Type of Data in Variable
  ZoneTimestep,                           !- Update Frequency
  component_loads_program,                !- EMS Program or Subroutine Name
  J;                                      !- Units

Output:Variable,
  *,                                      !- Key Value
  loads_clg_floors_annual_outvar,         !- Variable Name
  runperiod;                              !- Reporting Frequency

EnergyManagementSystem:OutputVariable,
  loads_clg_floors_timeseries_outvar,     !- Name
  loads_clg_floors,                       !- EMS Variable Name
  Summed,                                 !- Type of Data in Variable
  ZoneTimestep,                           !- Update Frequency
  component_loads_program,                !- EMS Program or Subroutine Name
  J;                                      !- Units

Output:Variable,
  *,                                      !- Key Value
  loads_clg_floors_timeseries_outvar,     !- Variable Name
  hourly;                                 !- Reporting Frequency

EnergyManagementSystem:OutputVariable,
  loads_clg_slabs_annual_outvar,          !- Name
  loads_clg_slabs,                        !- EMS Variable Name
  Summed,                                 !- Type of Data in Variable
  ZoneTimestep,                           !- Update Frequency
  component_loads_program,                !- EMS Program or Subroutine Name
  J;                                      !- Units

Output:Variable,
  *,                                      !- Key Value
  loads_clg_slabs_annual_outvar,          !- Variable Name
  runperiod;                              !- Reporting Frequency

EnergyManagementSystem:OutputVariable,
  loads_clg_slabs_timeseries_outvar,      !- Name
  loads_clg_slabs,                        !- EMS Variable Name
  Summed,                                 !- Type of Data in Variable
  ZoneTimestep,                           !- Update Frequency
  component_loads_program,                !- EMS Program or Subroutine Name
  J;                                      !- Units

Output:Variable,
  *,                                      !- Key Value
  loads_clg_slabs_timeseries_outvar,      !- Variable Name
  hourly;                                 !- Reporting Frequency

EnergyManagementSystem:OutputVariable,
  loads_clg_internal_mass_annual_outvar,  !- Name
  loads_clg_internal_mass,                !- EMS Variable Name
  Summed,                                 !- Type of Data in Variable
  ZoneTimestep,                           !- Update Frequency
  component_loads_program,                !- EMS Program or Subroutine Name
  J;                                      !- Units

Output:Variable,
  *,                                      !- Key Value
  loads_clg_internal_mass_annual_outvar,  !- Variable Name
  runperiod;                              !- Reporting Frequency

EnergyManagementSystem:OutputVariable,
  loads_clg_internal_mass_timeseries_outvar, !- Name
  loads_clg_internal_mass,                !- EMS Variable Name
  Summed,                                 !- Type of Data in Variable
  ZoneTimestep,                           !- Update Frequency
  component_loads_program,                !- EMS Program or Subroutine Name
  J;                                      !- Units

Output:Variable,
  *,                                      !- Key Value
  loads_clg_internal_mass_timeseries_outvar, !- Variable Name
  hourly;                                 !- Reporting Frequency

EnergyManagementSystem:OutputVariable,
  loads_clg_infil_annual_outvar,          !- Name
  loads_clg_infil,                        !- EMS Variable Name
  Summed,                                 !- Type of Data in Variable
  ZoneTimestep,                           !- Update Frequency
  component_loads_program,                !- EMS Program or Subroutine Name
  J;                                      !- Units

Output:Variable,
  *,                                      !- Key Value
  loads_clg_infil_annual_outvar,          !- Variable Name
  runperiod;                              !- Reporting Frequency

EnergyManagementSystem:OutputVariable,
  loads_clg_infil_timeseries_outvar,      !- Name
  loads_clg_infil,                        !- EMS Variable Name
  Summed,                                 !- Type of Data in Variable
  ZoneTimestep,                           !- Update Frequency
  component_loads_program,                !- EMS Program or Subroutine Name
  J;                                      !- Units

Output:Variable,
  *,                                      !- Key Value
  loads_clg_infil_timeseries_outvar,      !- Variable Name
  hourly;                                 !- Reporting Frequency

EnergyManagementSystem:OutputVariable,
  loads_clg_natvent_annual_outvar,        !- Name
  loads_clg_natvent,                      !- EMS Variable Name
  Summed,                                 !- Type of Data in Variable
  ZoneTimestep,                           !- Update Frequency
  component_loads_program,                !- EMS Program or Subroutine Name
  J;                                      !- Units

Output:Variable,
  *,                                      !- Key Value
  loads_clg_natvent_annual_outvar,        !- Variable Name
  runperiod;                              !- Reporting Frequency

EnergyManagementSystem:OutputVariable,
  loads_clg_natvent_timeseries_outvar,    !- Name
  loads_clg_natvent,                      !- EMS Variable Name
  Summed,                                 !- Type of Data in Variable
  ZoneTimestep,                           !- Update Frequency
  component_loads_program,                !- EMS Program or Subroutine Name
  J;                                      !- Units

Output:Variable,
  *,                                      !- Key Value
  loads_clg_natvent_timeseries_outvar,    !- Variable Name
  hourly;                                 !- Reporting Frequency

EnergyManagementSystem:OutputVariable,
  loads_clg_mechvent_annual_outvar,       !- Name
  loads_clg_mechvent,                     !- EMS Variable Name
  Summed,                                 !- Type of Data in Variable
  ZoneTimestep,                           !- Update Frequency
  component_loads_program,                !- EMS Program or Subroutine Name
  J;                                      !- Units

Output:Variable,
  *,                                      !- Key Value
  loads_clg_mechvent_annual_outvar,       !- Variable Name
  runperiod;                              !- Reporting Frequency

EnergyManagementSystem:OutputVariable,
  loads_clg_mechvent_timeseries_outvar,   !- Name
  loads_clg_mechvent,                     !- EMS Variable Name
  Summed,                                 !- Type of Data in Variable
  ZoneTimestep,                           !- Update Frequency
  component_loads_program,                !- EMS Program or Subroutine Name
  J;                                      !- Units

Output:Variable,
  *,                                      !- Key Value
  loads_clg_mechvent_timeseries_outvar,   !- Variable Name
  hourly;                                 !- Reporting Frequency

EnergyManagementSystem:OutputVariable,
  loads_clg_whf_annual_outvar,            !- Name
  loads_clg_whf,                          !- EMS Variable Name
  Summed,                                 !- Type of Data in Variable
  ZoneTimestep,                           !- Update Frequency
  component_loads_program,                !- EMS Program or Subroutine Name
  J;                                      !- Units

Output:Variable,
  *,                                      !- Key Value
  loads_clg_whf_annual_outvar,            !- Variable Name
  runperiod;                              !- Reporting Frequency

EnergyManagementSystem:OutputVariable,
  loads_clg_whf_timeseries_outvar,        !- Name
  loads_clg_whf,                          !- EMS Variable Name
  Summed,                                 !- Type of Data in Variable
  ZoneTimestep,                           !- Update Frequency
  component_loads_program,                !- EMS Program or Subroutine Name
  J;                                      !- Units

Output:Variable,
  *,                                      !- Key Value
  loads_clg_whf_timeseries_outvar,        !- Variable Name
  hourly;                                 !- Reporting Frequency

EnergyManagementSystem:OutputVariable,
  loads_clg_ducts_annual_outvar,          !- Name
  loads_clg_ducts,                        !- EMS Variable Name
  Summed,                                 !- Type of Data in Variable
  ZoneTimestep,                           !- Update Frequency
  component_loads_program,                !- EMS Program or Subroutine Name
  J;                                      !- Units

Output:Variable,
  *,                                      !- Key Value
  loads_clg_ducts_annual_outvar,          !- Variable Name
  runperiod;                              !- Reporting Frequency

EnergyManagementSystem:OutputVariable,
  loads_clg_ducts_timeseries_outvar,      !- Name
  loads_clg_ducts,                        !- EMS Variable Name
  Summed,                                 !- Type of Data in Variable
  ZoneTimestep,                           !- Update Frequency
  component_loads_program,                !- EMS Program or Subroutine Name
  J;                                      !- Units

Output:Variable,
  *,                                      !- Key Value
  loads_clg_ducts_timeseries_outvar,      !- Variable Name
  hourly;                                 !- Reporting Frequency

EnergyManagementSystem:OutputVariable,
  loads_clg_intgains_annual_outvar,       !- Name
  loads_clg_intgains,                     !- EMS Variable Name
  Summed,                                 !- Type of Data in Variable
  ZoneTimestep,                           !- Update Frequency
  component_loads_program,                !- EMS Program or Subroutine Name
  J;                                      !- Units

Output:Variable,
  *,                                      !- Key Value
  loads_clg_intgains_annual_outvar,       !- Variable Name
  runperiod;                              !- Reporting Frequency

EnergyManagementSystem:OutputVariable,
  loads_clg_intgains_timeseries_outvar,   !- Name
  loads_clg_intgains,                     !- EMS Variable Name
  Summed,                                 !- Type of Data in Variable
  ZoneTimestep,                           !- Update Frequency
  component_loads_program,                !- EMS Program or Subroutine Name
  J;                                      !- Units

Output:Variable,
  *,                                      !- Key Value
  loads_clg_intgains_timeseries_outvar,   !- Variable Name
  hourly;                                 !- Reporting Frequency

EnergyManagementSystem:OutputVariable,
  loads_clg_lighting_annual_outvar,       !- Name
  loads_clg_lighting,                     !- EMS Variable Name
  Summed,                                 !- Type of Data in Variable
  ZoneTimestep,                           !- Update Frequency
  component_loads_program,                !- EMS Program or Subroutine Name
  J;                                      !- Units

Output:Variable,
  *,                                      !- Key Value
  loads_clg_lighting_annual_outvar,       !- Variable Name
  runperiod;                              !- Reporting Frequency

EnergyManagementSystem:OutputVariable,
  loads_clg_lighting_timeseries_outvar,   !- Name
  loads_clg_lighting,                     !- EMS Variable Name
  Summed,                                 !- Type of Data in Variable
  ZoneTimestep,                           !- Update Frequency
  component_loads_program,                !- EMS Program or Subroutine Name
  J;                                      !- Units

Output:Variable,
  *,                                      !- Key Value
  loads_clg_lighting_timeseries_outvar,   !- Variable Name
  hourly;                                 !- Reporting Frequency

EnergyManagementSystem:OutputVariable,
  loads_htg_tot_annual_outvar,            !- Name
  loads_htg_tot,                          !- EMS Variable Name
  Summed,                                 !- Type of Data in Variable
  ZoneTimestep,                           !- Update Frequency
  total_loads_program,                    !- EMS Program or Subroutine Name
  J;                                      !- Units

Output:Variable,
  *,                                      !- Key Value
  loads_htg_tot_annual_outvar,            !- Variable Name
  runperiod;                              !- Reporting Frequency

EnergyManagementSystem:OutputVariable,
  loads_htg_tot_timeseries_outvar,        !- Name
  loads_htg_tot,                          !- EMS Variable Name
  Summed,                                 !- Type of Data in Variable
  ZoneTimestep,                           !- Update Frequency
  total_loads_program,                    !- EMS Program or Subroutine Name
  J;                                      !- Units

Output:Variable,
  *,                                      !- Key Value
  loads_htg_tot_timeseries_outvar,        !- Variable Name
  hourly;                                 !- Reporting Frequency

Output:Variable,
  AIR SOURCE HEAT PUMP BACKUP HTG COIL,   !- Key Value
  Heating Coil Heating Energy,            !- Variable Name
  runperiod;                              !- Reporting Frequency

Output:Variable,
  AIR SOURCE HEAT PUMP BACKUP HTG COIL,   !- Key Value
  Heating Coil Heating Energy,            !- Variable Name
  hourly;                                 !- Reporting Frequency

EnergyManagementSystem:OutputVariable,
  loads_clg_tot_annual_outvar,            !- Name
  loads_clg_tot,                          !- EMS Variable Name
  Summed,                                 !- Type of Data in Variable
  ZoneTimestep,                           !- Update Frequency
  total_loads_program,                    !- EMS Program or Subroutine Name
  J;                                      !- Units

Output:Variable,
  *,                                      !- Key Value
  loads_clg_tot_annual_outvar,            !- Variable Name
  runperiod;                              !- Reporting Frequency

EnergyManagementSystem:OutputVariable,
  loads_clg_tot_timeseries_outvar,        !- Name
  loads_clg_tot,                          !- EMS Variable Name
  Summed,                                 !- Type of Data in Variable
  ZoneTimestep,                           !- Update Frequency
  total_loads_program,                    !- EMS Program or Subroutine Name
  J;                                      !- Units

Output:Variable,
  *,                                      !- Key Value
  loads_clg_tot_timeseries_outvar,        !- Variable Name
  hourly;                                 !- Reporting Frequency

Output:Variable,
  WATER USE CONNECTIONS 1,                !- Key Value
  Water Use Connections Plant Hot Water Energy, !- Variable Name
  runperiod;                              !- Reporting Frequency

Output:Variable,
  WATER USE CONNECTIONS 1,                !- Key Value
  Water Use Connections Plant Hot Water Energy, !- Variable Name
  hourly;                                 !- Reporting Frequency

Output:Variable,
  WATER HEATER TANK,                      !- Key Value
  Water Heater Heat Loss Energy,          !- Variable Name
  runperiod;                              !- Reporting Frequency

Output:Variable,
  WATER HEATER TANK,                      !- Key Value
  Water Heater Heat Loss Energy,          !- Variable Name
  hourly;                                 !- Reporting Frequency

Output:Variable,
  *,                                      !- Key Value
  Zone Mean Air Temperature,              !- Variable Name
  hourly;                                 !- Reporting Frequency

Output:Variable,
  CONDITIONED SPACE,                      !- Key Value
  Zone Thermostat Heating Setpoint Temperature, !- Variable Name
  hourly;                                 !- Reporting Frequency

Output:Variable,
  CONDITIONED SPACE,                      !- Key Value
  Zone Thermostat Cooling Setpoint Temperature, !- Variable Name
  hourly;                                 !- Reporting Frequency

Output:Variable,
  *,                                      !- Key Value
  Zone Air Humidity Ratio,                !- Variable Name
  hourly;                                 !- Reporting Frequency

Output:Variable,
  *,                                      !- Key Value
  Zone Air Relative Humidity,             !- Variable Name
  hourly;                                 !- Reporting Frequency

Output:Variable,
  *,                                      !- Key Value
  Zone Mean Air Dewpoint Temperature,     !- Variable Name
  hourly;                                 !- Reporting Frequency

Output:Variable,
  *,                                      !- Key Value
  Zone Mean Radiant Temperature,          !- Variable Name
  hourly;                                 !- Reporting Frequency

Output:Variable,
  *,                                      !- Key Value
  Zone Operative Temperature,             !- Variable Name
  hourly;                                 !- Reporting Frequency

EnergyManagementSystem:OutputVariable,
  total_infil_flow_rate_timeseries_outvar, !- Name
  total_infil_flow_rate,                  !- EMS Variable Name
  Averaged,                               !- Type of Data in Variable
  ZoneTimestep,                           !- Update Frequency
  total_airflows_program,                 !- EMS Program or Subroutine Name
  m^3/s;                                  !- Units

Output:Variable,
  *,                                      !- Key Value
  total_infil_flow_rate_timeseries_outvar, !- Variable Name
  hourly;                                 !- Reporting Frequency

EnergyManagementSystem:OutputVariable,
  total_mechvent_flow_rate_timeseries_outvar, !- Name
  total_mechvent_flow_rate,               !- EMS Variable Name
  Averaged,                               !- Type of Data in Variable
  ZoneTimestep,                           !- Update Frequency
  total_airflows_program,                 !- EMS Program or Subroutine Name
  m^3/s;                                  !- Units

Output:Variable,
  *,                                      !- Key Value
  total_mechvent_flow_rate_timeseries_outvar, !- Variable Name
  hourly;                                 !- Reporting Frequency

EnergyManagementSystem:OutputVariable,
  total_natvent_flow_rate_timeseries_outvar, !- Name
  total_natvent_flow_rate,                !- EMS Variable Name
  Averaged,                               !- Type of Data in Variable
  ZoneTimestep,                           !- Update Frequency
  total_airflows_program,                 !- EMS Program or Subroutine Name
  m^3/s;                                  !- Units

Output:Variable,
  *,                                      !- Key Value
  total_natvent_flow_rate_timeseries_outvar, !- Variable Name
  hourly;                                 !- Reporting Frequency

EnergyManagementSystem:OutputVariable,
  total_whf_flow_rate_timeseries_outvar,  !- Name
  total_whf_flow_rate,                    !- EMS Variable Name
  Averaged,                               !- Type of Data in Variable
  ZoneTimestep,                           !- Update Frequency
  total_airflows_program,                 !- EMS Program or Subroutine Name
  m^3/s;                                  !- Units

Output:Variable,
  *,                                      !- Key Value
  total_whf_flow_rate_timeseries_outvar,  !- Variable Name
  hourly;                                 !- Reporting Frequency

Output:Variable,
  *,                                      !- Key Value
  Site Outdoor Air Drybulb Temperature,   !- Variable Name
  hourly;                                 !- Reporting Frequency

Output:Variable,
  *,                                      !- Key Value
  Site Outdoor Air Wetbulb Temperature,   !- Variable Name
  hourly;                                 !- Reporting Frequency

Output:Variable,
  *,                                      !- Key Value
  Site Outdoor Air Relative Humidity,     !- Variable Name
  hourly;                                 !- Reporting Frequency

Output:Variable,
  *,                                      !- Key Value
  Site Wind Speed,                        !- Variable Name
  hourly;                                 !- Reporting Frequency

Output:Variable,
  *,                                      !- Key Value
  Site Diffuse Solar Radiation Rate per Area, !- Variable Name
  hourly;                                 !- Reporting Frequency

Output:Variable,
  *,                                      !- Key Value
  Site Direct Solar Radiation Rate per Area, !- Variable Name
  hourly;                                 !- Reporting Frequency

Output:Variable,
  *,                                      !- Key Value
  People Sensible Heating Rate,           !- Variable Name
  hourly;                                 !- Reporting Frequency

Output:Variable,
  *,                                      !- Key Value
  People Total Heating Rate,              !- Variable Name
  hourly;                                 !- Reporting Frequency

Output:Variable,
  *,                                      !- Key Value
  Site Outdoor Air Humidity Ratio,        !- Variable Name
  hourly;                                 !- Reporting Frequency

Output:Meter,
  ELECTRICITY:TOTAL,                      !- Key Name
  monthly;                                !- Reporting Frequency

Output:Meter,
  Electricity:Facility,                   !- Key Name
  hourly;                                 !- Reporting Frequency

Output:Table:Monthly,
  Building Energy Performance - Electricity, !- Name
  2,                                      !- Digits After Decimal
  InteriorLights:Electricity,             !- Variable or Meter Name 1
  SumOrAverage,                           !- Aggregation Type for Variable or Meter 1
  ExteriorLights:Electricity,             !- Variable or Meter Name 2
  SumOrAverage,                           !- Aggregation Type for Variable or Meter 2
  InteriorEquipment:Electricity,          !- Variable or Meter Name 3
  SumOrAverage,                           !- Aggregation Type for Variable or Meter 3
  ExteriorEquipment:Electricity,          !- Variable or Meter Name 4
  SumOrAverage,                           !- Aggregation Type for Variable or Meter 4
  Fans:Electricity,                       !- Variable or Meter Name 5
  SumOrAverage,                           !- Aggregation Type for Variable or Meter 5
  Pumps:Electricity,                      !- Variable or Meter Name 6
  SumOrAverage,                           !- Aggregation Type for Variable or Meter 6
  Heating:Electricity,                    !- Variable or Meter Name 7
  SumOrAverage,                           !- Aggregation Type for Variable or Meter 7
  Cooling:Electricity,                    !- Variable or Meter Name 8
  SumOrAverage,                           !- Aggregation Type for Variable or Meter 8
  HeatRejection:Electricity,              !- Variable or Meter Name 9
  SumOrAverage,                           !- Aggregation Type for Variable or Meter 9
  Humidifier:Electricity,                 !- Variable or Meter Name 10
  SumOrAverage,                           !- Aggregation Type for Variable or Meter 10
  HeatRecovery:Electricity,               !- Variable or Meter Name 11
  SumOrAverage,                           !- Aggregation Type for Variable or Meter 11
  WaterSystems:Electricity,               !- Variable or Meter Name 12
  SumOrAverage,                           !- Aggregation Type for Variable or Meter 12
  Cogeneration:Electricity,               !- Variable or Meter Name 13
  SumOrAverage,                           !- Aggregation Type for Variable or Meter 13
  Refrigeration:Electricity,              !- Variable or Meter Name 14
  SumOrAverage;                           !- Aggregation Type for Variable or Meter 14

Output:Table:Monthly,
  Building Energy Performance - Natural Gas, !- Name
  2,                                      !- Digits After Decimal
  InteriorEquipment:NaturalGas,           !- Variable or Meter Name 1
  SumOrAverage,                           !- Aggregation Type for Variable or Meter 1
  ExteriorEquipment:NaturalGas,           !- Variable or Meter Name 2
  SumOrAverage,                           !- Aggregation Type for Variable or Meter 2
  Heating:NaturalGas,                     !- Variable or Meter Name 3
  SumOrAverage,                           !- Aggregation Type for Variable or Meter 3
  Cooling:NaturalGas,                     !- Variable or Meter Name 4
  SumOrAverage,                           !- Aggregation Type for Variable or Meter 4
  WaterSystems:NaturalGas,                !- Variable or Meter Name 5
  SumOrAverage,                           !- Aggregation Type for Variable or Meter 5
  Cogeneration:NaturalGas,                !- Variable or Meter Name 6
  SumOrAverage;                           !- Aggregation Type for Variable or Meter 6

Output:Table:Monthly,
  Building Energy Performance - District Heating Water, !- Name
  2,                                      !- Digits After Decimal
  InteriorLights:DistrictHeatingWater,    !- Variable or Meter Name 1
  SumOrAverage,                           !- Aggregation Type for Variable or Meter 1
  ExteriorLights:DistrictHeatingWater,    !- Variable or Meter Name 2
  SumOrAverage,                           !- Aggregation Type for Variable or Meter 2
  InteriorEquipment:DistrictHeatingWater, !- Variable or Meter Name 3
  SumOrAverage,                           !- Aggregation Type for Variable or Meter 3
  ExteriorEquipment:DistrictHeatingWater, !- Variable or Meter Name 4
  SumOrAverage,                           !- Aggregation Type for Variable or Meter 4
  Fans:DistrictHeatingWater,              !- Variable or Meter Name 5
  SumOrAverage,                           !- Aggregation Type for Variable or Meter 5
  Pumps:DistrictHeatingWater,             !- Variable or Meter Name 6
  SumOrAverage,                           !- Aggregation Type for Variable or Meter 6
  Heating:DistrictHeatingWater,           !- Variable or Meter Name 7
  SumOrAverage,                           !- Aggregation Type for Variable or Meter 7
  Cooling:DistrictHeatingWater,           !- Variable or Meter Name 8
  SumOrAverage,                           !- Aggregation Type for Variable or Meter 8
  HeatRejection:DistrictHeatingWater,     !- Variable or Meter Name 9
  SumOrAverage,                           !- Aggregation Type for Variable or Meter 9
  Humidifier:DistrictHeatingWater,        !- Variable or Meter Name 10
  SumOrAverage,                           !- Aggregation Type for Variable or Meter 10
  HeatRecovery:DistrictHeatingWater,      !- Variable or Meter Name 11
  SumOrAverage,                           !- Aggregation Type for Variable or Meter 11
  WaterSystems:DistrictHeatingWater,      !- Variable or Meter Name 12
  SumOrAverage,                           !- Aggregation Type for Variable or Meter 12
  Cogeneration:DistrictHeatingWater,      !- Variable or Meter Name 13
  SumOrAverage;                           !- Aggregation Type for Variable or Meter 13

Output:Table:Monthly,
  Building Energy Performance - District Cooling, !- Name
  2,                                      !- Digits After Decimal
  InteriorLights:DistrictCooling,         !- Variable or Meter Name 1
  SumOrAverage,                           !- Aggregation Type for Variable or Meter 1
  ExteriorLights:DistrictCooling,         !- Variable or Meter Name 2
  SumOrAverage,                           !- Aggregation Type for Variable or Meter 2
  InteriorEquipment:DistrictCooling,      !- Variable or Meter Name 3
  SumOrAverage,                           !- Aggregation Type for Variable or Meter 3
  ExteriorEquipment:DistrictCooling,      !- Variable or Meter Name 4
  SumOrAverage,                           !- Aggregation Type for Variable or Meter 4
  Fans:DistrictCooling,                   !- Variable or Meter Name 5
  SumOrAverage,                           !- Aggregation Type for Variable or Meter 5
  Pumps:DistrictCooling,                  !- Variable or Meter Name 6
  SumOrAverage,                           !- Aggregation Type for Variable or Meter 6
  Heating:DistrictCooling,                !- Variable or Meter Name 7
  SumOrAverage,                           !- Aggregation Type for Variable or Meter 7
  Cooling:DistrictCooling,                !- Variable or Meter Name 8
  SumOrAverage,                           !- Aggregation Type for Variable or Meter 8
  HeatRejection:DistrictCooling,          !- Variable or Meter Name 9
  SumOrAverage,                           !- Aggregation Type for Variable or Meter 9
  Humidifier:DistrictCooling,             !- Variable or Meter Name 10
  SumOrAverage,                           !- Aggregation Type for Variable or Meter 10
  HeatRecovery:DistrictCooling,           !- Variable or Meter Name 11
  SumOrAverage,                           !- Aggregation Type for Variable or Meter 11
  WaterSystems:DistrictCooling,           !- Variable or Meter Name 12
  SumOrAverage,                           !- Aggregation Type for Variable or Meter 12
  Cogeneration:DistrictCooling,           !- Variable or Meter Name 13
  SumOrAverage;                           !- Aggregation Type for Variable or Meter 13

Output:Table:Monthly,
  Building Energy Performance - Electricity Peak Demand, !- Name
  2,                                      !- Digits After Decimal
  Electricity:Facility,                   !- Variable or Meter Name 1
  Maximum,                                !- Aggregation Type for Variable or Meter 1
  InteriorLights:Electricity,             !- Variable or Meter Name 2
  ValueWhenMaximumOrMinimum,              !- Aggregation Type for Variable or Meter 2
  ExteriorLights:Electricity,             !- Variable or Meter Name 3
  ValueWhenMaximumOrMinimum,              !- Aggregation Type for Variable or Meter 3
  InteriorEquipment:Electricity,          !- Variable or Meter Name 4
  ValueWhenMaximumOrMinimum,              !- Aggregation Type for Variable or Meter 4
  ExteriorEquipment:Electricity,          !- Variable or Meter Name 5
  ValueWhenMaximumOrMinimum,              !- Aggregation Type for Variable or Meter 5
  Fans:Electricity,                       !- Variable or Meter Name 6
  ValueWhenMaximumOrMinimum,              !- Aggregation Type for Variable or Meter 6
  Pumps:Electricity,                      !- Variable or Meter Name 7
  ValueWhenMaximumOrMinimum,              !- Aggregation Type for Variable or Meter 7
  Heating:Electricity,                    !- Variable or Meter Name 8
  ValueWhenMaximumOrMinimum,              !- Aggregation Type for Variable or Meter 8
  Cooling:Electricity,                    !- Variable or Meter Name 9
  ValueWhenMaximumOrMinimum,              !- Aggregation Type for Variable or Meter 9
  HeatRejection:Electricity,              !- Variable or Meter Name 10
  ValueWhenMaximumOrMinimum,              !- Aggregation Type for Variable or Meter 10
  Humidifier:Electricity,                 !- Variable or Meter Name 11
  ValueWhenMaximumOrMinimum,              !- Aggregation Type for Variable or Meter 11
  HeatRecovery:Electricity,               !- Variable or Meter Name 12
  ValueWhenMaximumOrMinimum,              !- Aggregation Type for Variable or Meter 12
  WaterSystems:Electricity,               !- Variable or Meter Name 13
  ValueWhenMaximumOrMinimum,              !- Aggregation Type for Variable or Meter 13
  Cogeneration:Electricity,               !- Variable or Meter Name 14
  ValueWhenMaximumOrMinimum,              !- Aggregation Type for Variable or Meter 14
  Refrigeration:Electricity,              !- Variable or Meter Name 15
  ValueWhenMaximumOrMinimum;              !- Aggregation Type for Variable or Meter 15

Output:Table:Monthly,
  Building Energy Performance - Natural Gas Peak Demand, !- Name
  2,                                      !- Digits After Decimal
  NaturalGas:Facility,                    !- Variable or Meter Name 1
  Maximum,                                !- Aggregation Type for Variable or Meter 1
  InteriorEquipment:NaturalGas,           !- Variable or Meter Name 2
  ValueWhenMaximumOrMinimum,              !- Aggregation Type for Variable or Meter 2
  ExteriorEquipment:NaturalGas,           !- Variable or Meter Name 3
  ValueWhenMaximumOrMinimum,              !- Aggregation Type for Variable or Meter 3
  Heating:NaturalGas,                     !- Variable or Meter Name 4
  ValueWhenMaximumOrMinimum,              !- Aggregation Type for Variable or Meter 4
  Cooling:NaturalGas,                     !- Variable or Meter Name 5
  ValueWhenMaximumOrMinimum,              !- Aggregation Type for Variable or Meter 5
  WaterSystems:NaturalGas,                !- Variable or Meter Name 6
  ValueWhenMaximumOrMinimum,              !- Aggregation Type for Variable or Meter 6
  Cogeneration:NaturalGas,                !- Variable or Meter Name 7
  ValueWhenMaximumOrMinimum;              !- Aggregation Type for Variable or Meter 7

Output:Table:Monthly,
  Building Energy Performance - District Heating Water Peak Demand, !- Name
  2,                                      !- Digits After Decimal
  DistrictHeatingWater:Facility,          !- Variable or Meter Name 1
  Maximum,                                !- Aggregation Type for Variable or Meter 1
  InteriorLights:DistrictHeatingWater,    !- Variable or Meter Name 2
  ValueWhenMaximumOrMinimum,              !- Aggregation Type for Variable or Meter 2
  ExteriorLights:DistrictHeatingWater,    !- Variable or Meter Name 3
  ValueWhenMaximumOrMinimum,              !- Aggregation Type for Variable or Meter 3
  InteriorEquipment:DistrictHeatingWater, !- Variable or Meter Name 4
  ValueWhenMaximumOrMinimum,              !- Aggregation Type for Variable or Meter 4
  ExteriorEquipment:DistrictHeatingWater, !- Variable or Meter Name 5
  ValueWhenMaximumOrMinimum,              !- Aggregation Type for Variable or Meter 5
  Fans:DistrictHeatingWater,              !- Variable or Meter Name 6
  ValueWhenMaximumOrMinimum,              !- Aggregation Type for Variable or Meter 6
  Pumps:DistrictHeatingWater,             !- Variable or Meter Name 7
  ValueWhenMaximumOrMinimum,              !- Aggregation Type for Variable or Meter 7
  Heating:DistrictHeatingWater,           !- Variable or Meter Name 8
  ValueWhenMaximumOrMinimum,              !- Aggregation Type for Variable or Meter 8
  Cooling:DistrictHeatingWater,           !- Variable or Meter Name 9
  ValueWhenMaximumOrMinimum,              !- Aggregation Type for Variable or Meter 9
  HeatRejection:DistrictHeatingWater,     !- Variable or Meter Name 10
  ValueWhenMaximumOrMinimum,              !- Aggregation Type for Variable or Meter 10
  Humidifier:DistrictHeatingWater,        !- Variable or Meter Name 11
  ValueWhenMaximumOrMinimum,              !- Aggregation Type for Variable or Meter 11
  HeatRecovery:DistrictHeatingWater,      !- Variable or Meter Name 12
  ValueWhenMaximumOrMinimum,              !- Aggregation Type for Variable or Meter 12
  WaterSystems:DistrictHeatingWater,      !- Variable or Meter Name 13
  ValueWhenMaximumOrMinimum,              !- Aggregation Type for Variable or Meter 13
  Cogeneration:DistrictHeatingWater,      !- Variable or Meter Name 14
  ValueWhenMaximumOrMinimum;              !- Aggregation Type for Variable or Meter 14

Output:Table:Monthly,
  Building Energy Performance - District Cooling Peak Demand, !- Name
  2,                                      !- Digits After Decimal
  DistrictCooling:Facility,               !- Variable or Meter Name 1
  Maximum,                                !- Aggregation Type for Variable or Meter 1
  InteriorLights:DistrictCooling,         !- Variable or Meter Name 2
  ValueWhenMaximumOrMinimum,              !- Aggregation Type for Variable or Meter 2
  ExteriorLights:DistrictCooling,         !- Variable or Meter Name 3
  ValueWhenMaximumOrMinimum,              !- Aggregation Type for Variable or Meter 3
  InteriorEquipment:DistrictCooling,      !- Variable or Meter Name 4
  ValueWhenMaximumOrMinimum,              !- Aggregation Type for Variable or Meter 4
  ExteriorEquipment:DistrictCooling,      !- Variable or Meter Name 5
  ValueWhenMaximumOrMinimum,              !- Aggregation Type for Variable or Meter 5
  Fans:DistrictCooling,                   !- Variable or Meter Name 6
  ValueWhenMaximumOrMinimum,              !- Aggregation Type for Variable or Meter 6
  Pumps:DistrictCooling,                  !- Variable or Meter Name 7
  ValueWhenMaximumOrMinimum,              !- Aggregation Type for Variable or Meter 7
  Heating:DistrictCooling,                !- Variable or Meter Name 8
  ValueWhenMaximumOrMinimum,              !- Aggregation Type for Variable or Meter 8
  Cooling:DistrictCooling,                !- Variable or Meter Name 9
  ValueWhenMaximumOrMinimum,              !- Aggregation Type for Variable or Meter 9
  HeatRejection:DistrictCooling,          !- Variable or Meter Name 10
  ValueWhenMaximumOrMinimum,              !- Aggregation Type for Variable or Meter 10
  Humidifier:DistrictCooling,             !- Variable or Meter Name 11
  ValueWhenMaximumOrMinimum,              !- Aggregation Type for Variable or Meter 11
  HeatRecovery:DistrictCooling,           !- Variable or Meter Name 12
  ValueWhenMaximumOrMinimum,              !- Aggregation Type for Variable or Meter 12
  WaterSystems:DistrictCooling,           !- Variable or Meter Name 13
  ValueWhenMaximumOrMinimum,              !- Aggregation Type for Variable or Meter 13
  Cogeneration:DistrictCooling,           !- Variable or Meter Name 14
  ValueWhenMaximumOrMinimum;              !- Aggregation Type for Variable or Meter 14

Output:Meter:MeterFileOnly,
  NaturalGas:Facility,                    !- Key Name
  Daily;                                  !- Reporting Frequency

Output:Meter:MeterFileOnly,
  Electricity:Facility,                   !- Key Name
  Timestep;                               !- Reporting Frequency

Output:Meter:MeterFileOnly,
  Electricity:Facility,                   !- Key Name
  Daily;                                  !- Reporting Frequency

Output:Meter,
  Electricity:Facility,                   !- Key Name
  Timestep;                               !- Reporting Frequency

Output:Meter,
  NaturalGas:Facility,                    !- Key Name
  Timestep;                               !- Reporting Frequency

Output:Meter,
  DistrictHeatingWater:Facility,          !- Key Name
  Timestep;                               !- Reporting Frequency

Output:Meter,
  DistrictCooling:Facility,               !- Key Name
  Timestep;                               !- Reporting Frequency

